# vtk DataFile Version 3.0
The density field of the optimized results
ASCII
DATASET UNSTRUCTURED_GRID

POINTS	6318	double
-2.04598		0.75		0.755
-2.04598		0.75		1.505
-2.09772		1.50984		0.551886
-2.1009		-0.00447475		0.549499
-2.03988		-0.00343832		1.74775
-2.04522		1.12091		1.74947
-2.03692		1.50343		1.37091
-1.70948		1.49214		0.452683
-1.65694		1.49647		1.36917
-1.66524		1.11877		1.75065
-1.65988		0.00137096		1.74878
-1.71202		0.0106349		0.441774
-1.66598		0.75		1.505
-1.66598		0.75		0.755
0.137459		-0.064602		1.07909
0.137451		1.05007		1.12107
-0.0713084		1.45752		0.768124
-0.553385		1.48827		-0.100545
-0.558688		-0.0134475		-0.15472
0.00359895		0.694976		0.851261
-0.412725		0.727615		0.129818
-0.171007		1.487		-0.309761
0.307963		1.45712		0.557696
0.519688		1.04995		0.910483
0.519537		-0.0647907		0.868045
-0.176626		-0.0165061		-0.368352
0.381813		0.69495		0.640487
-0.0341464		0.726536		-0.0807307
1.44989		1.47679		-1.19898
1.94745		0.974344		-1.49538
1.67143		0.99473		-1.99538
1.17387		1.49717		-1.69898
0.79387		1.49903		-1.4892
1.06989		1.47865		-0.989201
0.791427		0.999019		-1.50958
1.06745		0.978652		-1.00958
0.171592		1.00159		-1.16752
0.447342		0.982046		-0.667499
0.174666		1.5012		-1.14831
0.449552		1.48236		-0.648276
1.94256		-0.0256629		-1.53617
1.66654		-0.00526491		-2.03617
-2.28954		0.00296735		0.0707171
-2.27784		1.51053		0.078013
-2.04598		0.847057		0.767778
-2.04598		0.9375		0.80524
-2.04598		1.01517		0.864835
-2.04598		1.07476		0.9425
-2.04598		1.11222		1.03294
-2.04598		1.125		1.13
-2.04598		1.11222		1.22706
-2.04598		1.07476		1.3175
-2.04598		1.01517		1.39517
-2.04598		0.9375		1.45476
-2.04598		0.847057		1.49222
-2.04598		0.652943		1.49222
-2.04598		0.5625		1.45476
-2.04598		0.484835		1.39517
-2.04598		0.42524		1.3175
-2.04598		0.387778		1.22706
-2.04598		0.375		1.13
-2.04598		0.387778		1.03294
-2.04598		0.42524		0.9425
-2.04598		0.484835		0.864835
-2.04598		0.5625		0.80524
-2.04598		0.652943		0.767778
-2.10099		1.40688		0.554188
-2.10228		1.3046		0.552686
-2.10295		1.2031		0.551552
-2.10252		1.10213		0.550534
-2.10112		1.00171		0.549412
-2.10001		0.901663		0.548492
-2.09922		0.80191		0.547285
-2.09969		0.702202		0.547403
-2.1008		0.60223		0.548352
-2.10147		0.502246		0.548068
-2.10207		0.402285		0.547933
-2.10344		0.301654		0.548769
-2.10452		0.200444		0.548839
-2.10356		0.0982767		0.54976
-2.07532		-0.00520215		0.627147
-2.05811		-0.00557306		0.705777
-2.04694		-0.00610462		0.786582
-2.04002		-0.00623528		0.869218
-2.03637		-0.0059648		0.953429
-2.03507		-0.00542082		1.03906
-2.03515		-0.00481145		1.12591
-2.03587		-0.00425597		1.21369
-2.03678		-0.00381071		1.30211
-2.03768		-0.00349912		1.39094
-2.03845		-0.00330461		1.48002
-2.03907		-0.00322772		1.56922
-2.03954		-0.00328314		1.65847
-2.04123		0.0984059		1.74797
-2.04259		0.200366		1.74828
-2.04383		0.302522		1.74864
-2.04484		0.404858		1.74901
-2.04555		0.507287		1.74932
-2.04598		0.609728		1.74955
-2.04618		0.712112		1.74968
-2.04622		0.814433		1.74971
-2.04609		0.916696		1.74965
-2.04576		1.01887		1.74954
-2.04438		1.19719		1.67349
-2.04312		1.27368		1.59754
-2.0413		1.35034		1.52179
-2.03906		1.42694		1.44624
-2.03638		1.50404		1.27468
-2.03575		1.50459		1.17919
-2.03544		1.50531		1.08476
-2.03616		1.50623		0.991679
-2.039		1.50704		0.900201
-2.04512		1.50753		0.810576
-2.05563		1.5078		0.723125
-2.07255		1.50871		0.637809
-1.80873		0.0075192		0.471837
-1.90538		0.00289408		0.497985
-2.00256		-0.00176171		0.522951
-1.99936		1.50666		0.530184
-1.90224		1.50166		0.505825
-1.80581		1.49628		0.481407
-1.75488		0.00012577		1.7485
-1.84987		-0.00104359		1.74828
-1.94488		-0.00220855		1.74806
-1.76027		1.11933		1.75034
-1.85527		1.11984		1.75006
-1.95026		1.12034		1.74978
-1.75187		1.49839		1.36922
-1.84684		1.49995		1.37003
-1.94186		1.5015		1.37085
-1.95098		0.75		0.755
-1.85598		0.75		0.755
-1.76098		0.75		0.755
-1.76098		0.75		1.505
-1.85598		0.75		1.505
-1.95098		0.75		1.505
-1.68932		1.49034		0.560757
-1.6745		1.49076		0.666625
-1.66473		1.49117		0.770795
-1.65881		1.49196		0.873639
-1.65606		1.4931		0.975128
-1.6554		1.49429		1.07528
-1.65574		1.49519		1.17417
-1.65639		1.49583		1.27204
-1.65908		1.42097		1.44588
-1.66133		1.34554		1.52237
-1.66315		1.27014		1.59862
-1.6644		1.19456		1.67466
-1.6658		1.01713		1.75054
-1.66615		0.915601		1.75041
-1.66631		0.814103		1.7503
-1.66631		0.712592		1.75024
-1.66614		0.611072		1.75019
-1.66572		0.509561		1.7501
-1.66499		0.408048		1.74994
-1.66394		0.306507		1.7497
-1.66265		0.204889		1.74941
-1.66125		0.103167		1.74911
-1.65956		0.00166791		1.65949
-1.65912		0.00200666		1.57014
-1.65855		0.00242012		1.48066
-1.65785		0.00292519		1.39097
-1.65704		0.00356541		1.3009
-1.65621		0.00441015		1.21028
-1.65558		0.00548713		1.11887
-1.65557		0.00678341		1.02641
-1.65693		0.00820018		0.932698
-1.66058		0.00951084		0.837663
-1.66729		0.0105673		0.741317
-1.6776		0.0113287		0.643599
-1.69293		0.0123402		0.543923
-1.71488		0.10748		0.440519
-1.71426		0.205033		0.439562
-1.71448		0.303322		0.441412
-1.71325		0.402564		0.442675
-1.71219		0.501961		0.44337
-1.71183		0.601172		0.444831
-1.71125		0.700662		0.446679
-1.71038		0.800177		0.446657
-1.71106		0.899664		0.44717
-1.71177		0.99919		0.447207
-1.71235		1.09886		0.446888
-1.71315		1.19787		0.447949
-1.71248		1.29655		0.448491
-1.71202		1.39474		0.450456
-1.66598		0.847057		1.49222
-1.66598		0.9375		1.45476
-1.66598		1.01517		1.39517
-1.66598		1.07476		1.3175
-1.66598		1.11222		1.22706
-1.66598		1.125		1.13
-1.66598		1.11222		1.03294
-1.66598		1.07476		0.9425
-1.66598		1.01517		0.864835
-1.66598		0.9375		0.80524
-1.66598		0.847057		0.767778
-1.66598		0.652943		0.767778
-1.66598		0.5625		0.80524
-1.66598		0.484835		0.864835
-1.66598		0.42524		0.9425
-1.66598		0.387778		1.03294
-1.66598		0.375		1.13
-1.66598		0.387778		1.22706
-1.66598		0.42524		1.3175
-1.66598		0.484835		1.39517
-1.66598		0.5625		1.45476
-1.66598		0.652943		1.49222
0.1378		0.0293724		1.08281
0.137981		0.123226		1.085
0.137999		0.217075		1.08687
0.137887		0.310808		1.08827
0.137643		0.404193		1.08931
0.137319		0.497011		1.09035
0.137013		0.589176		1.09202
0.136851		0.680833		1.09504
0.136892		0.772431		1.09993
0.137031		0.864311		1.10621
0.137336		0.956868		1.11356
0.0961676		1.13213		1.05259
0.0544727		1.21407		0.9829
0.0125914		1.29588		0.912108
-0.029393		1.37702		0.84031
-0.124875		1.46279		0.670999
-0.178343		1.46753		0.573684
-0.231878		1.47139		0.476395
-0.285454		1.47453		0.379367
-0.338999		1.47727		0.282673
-0.392466		1.47987		0.186296
-0.44584		1.48252		0.0902846
-0.499299		1.48545		-0.00530413
-0.553539		1.38818		-0.10361
-0.553999		1.28811		-0.106869
-0.554456		1.18809		-0.110145
-0.554743		1.08805		-0.11336
-0.555056		0.988048		-0.116463
-0.555264		0.88808		-0.119644
-0.555505		0.788098		-0.123001
-0.555797		0.688136		-0.126533
-0.55595		0.588123		-0.130307
-0.556303		0.488162		-0.134152
-0.556591		0.388114		-0.138181
-0.556838		0.288		-0.142132
-0.557176		0.187665		-0.146103
-0.557486		0.0871347		-0.150276
-0.504346		-0.0185806		-0.0624019
-0.450543		-0.0232111		0.0310802
-0.396967		-0.0284627		0.125369
-0.343278		-0.0339251		0.220179
-0.289552		-0.039352		0.315415
-0.235853		-0.0444747		0.410977
-0.18223		-0.0489134		0.506889
-0.128726		-0.052567		0.602924
-0.0753152		-0.0554714		0.698911
-0.0219555		-0.0578266		0.794709
0.0313893		-0.0598905		0.890222
0.0847256		-0.0618887		0.985206
-0.00381099		0.596784		0.835558
-0.0253159		0.506358		0.797413
-0.0591596		0.429601		0.738418
-0.102906		0.371914		0.661941
-0.153469		0.337521		0.573611
-0.207263		0.328802		0.479392
-0.260725		0.347003		0.385985
-0.310218		0.38984		0.299785
-0.352663		0.454412		0.226604
-0.385193		0.535846		0.171696
-0.405683		0.629001		0.138625
-0.405686		0.825204		0.145668
-0.385098		0.915291		0.185561
-0.352365		0.991824		0.246813
-0.309691		1.04966		0.325078
-0.25998		1.08473		0.415241
-0.206525		1.09437		0.510603
-0.152851		1.07744		0.60445
-0.102514		1.03544		0.690309
-0.0589667		0.970729		0.761535
-0.0251549		0.888467		0.813717
-0.00375979		0.794241		0.843742
-0.128829		0.726752		-0.0284363
-0.223442		0.727078		0.0240608
-0.318055		0.727421		0.0768329
0.0981301		0.694961		0.79928
0.192705		0.694953		0.746807
0.287281		0.694946		0.693894
0.424061		1.04975		0.964259
0.328567		1.04981		1.01691
0.233074		1.04982		1.06955
0.233058		-0.0643155		1.02806
0.328498		-0.0642514		0.9754
0.423938		-0.0644095		0.92254
0.213132		1.45701		0.610218
0.118321		1.45702		0.662806
0.0235126		1.4572		0.715445
-0.266401		1.48768		-0.258012
-0.361916		1.48811		-0.205788
-0.457547		1.48832		-0.153279
-0.462909		-0.0149701		-0.209425
-0.36724		-0.0157234		-0.262964
-0.271753		-0.0161814		-0.315833
-0.118402		1.48421		-0.214753
-0.0653569		1.48138		-0.119398
-0.0120879		1.47886		-0.023559
0.0411608		1.47637		0.0726698
0.0943988		1.47374		0.169232
0.147667		1.47072		0.266146
0.201037		1.46697		0.363352
0.254526		1.46232		0.460613
0.350045		1.37668		0.629861
0.392101		1.2956		0.701617
0.434317		1.21387		0.772366
0.476775		1.13199		0.842029
0.519773		0.956763		0.902957
0.520083		0.864229		0.895561
0.520257		0.772367		0.889221
0.520347		0.680776		0.884262
0.520235		0.589114		0.881178
0.519966		0.496933		0.879459
0.519656		0.404089		0.878362
0.519398		0.310673		0.877288
0.519243		0.216914		0.875856
0.519193		0.123046		0.873965
0.519289		0.0291847		0.871764
0.46546		-0.0620842		0.774159
0.411975		-0.0601089		0.679169
0.358478		-0.0580877		0.58364
0.304968		-0.0557944		0.487813
0.251473		-0.0529718		0.39178
0.19803		-0.049417		0.295681
0.144659		-0.0450904		0.199682
0.0913036		-0.0400882		0.104006
0.0379151		-0.0347922		0.00864417
-0.0155903		-0.0294996		-0.0863185
-0.0693141		-0.0245114		-0.180811
-0.122974		-0.0203082		-0.274686
-0.176035		0.0842206		-0.363093
-0.175581		0.184782		-0.358769
-0.175254		0.285213		-0.354394
-0.174937		0.385467		-0.349993
-0.174696		0.485639		-0.345569
-0.174458		0.585764		-0.341167
-0.174154		0.685809		-0.337046
-0.173826		0.785842		-0.333174
-0.173477		0.88588		-0.329521
-0.173092		0.985964		-0.326041
-0.172673		1.08611		-0.322659
-0.172283		1.18627		-0.319361
-0.171869		1.28646		-0.316104
-0.171444		1.38671		-0.312754
0.375019		0.794188		0.633035
0.354894		0.888344		0.603062
0.322658		0.970499		0.550932
0.280132		1.03508		0.47977
0.230223		1.07691		0.394007
0.176285		1.09366		0.300285
0.122079		1.08383		0.205064
0.0714032		1.0486		0.115026
0.0277874		0.990676		0.0368661
-0.00576674		0.91411		-0.0244181
-0.0268936		0.82404		-0.0645132
-0.0270463		0.627907		-0.0723644
-0.00597159		0.534757		-0.0396473
0.0275838		0.453341		0.015095
0.0712743		0.388852		0.0882941
0.122094		0.346167		0.174613
0.176334		0.328149		0.268176
0.230271		0.337042		0.362507
0.280116		0.371591		0.45093
0.322605		0.429408		0.52747
0.354928		0.506252		0.58652
0.375022		0.596738		0.62472
1.54739		1.4667		-1.25322
1.64105		1.43779		-1.30616
1.72727		1.39117		-1.35576
1.80273		1.32861		-1.40012
1.86454		1.25254		-1.43754
1.91033		1.16587		-1.46657
1.93832		1.07194		-1.4861
1.89225		0.978421		-1.59538
1.83704		0.982498		-1.69538
1.78184		0.986575		-1.79538
1.72663		0.990653		-1.89538
1.6623		1.09232		-1.9861
1.6343		1.18626		-1.96657
1.58852		1.27293		-1.93754
1.52671		1.349		-1.90012
1.45124		1.41155		-1.85576
1.36503		1.45818		-1.80616
1.27137		1.48709		-1.75322
1.22907		1.49309		-1.59898
1.28428		1.48902		-1.49898
1.33948		1.48494		-1.39898
1.39469		1.48087		-1.29898
0.849075		1.49495		-1.3892
0.904279		1.49087		-1.2892
0.959484		1.4868		-1.1892
1.01469		1.48272		-1.0892
1.16489		1.47818		-1.04164
1.25989		1.47772		-1.09409
1.35489		1.47725		-1.14653
1.07887		1.49763		-1.64653
0.98387		1.4981		-1.59409
0.88887		1.49856		-1.54164
0.793382		1.39903		-1.49328
0.792893		1.29903		-1.49735
0.792404		1.19902		-1.50143
0.791916		1.09902		-1.5055
0.846631		0.994946		-1.40958
0.901836		0.990872		-1.30958
0.957042		0.986799		-1.20958
1.01225		0.982726		-1.10958
1.06794		1.07865		-1.0055
1.06843		1.17865		-1.00143
1.06892		1.27865		-0.997353
1.0694		1.37865		-0.993276
0.688093		0.999509		-1.45255
0.58476		0.999992		-1.39552
0.481431		1.00047		-1.33849
0.37811		1.00092		-1.28147
0.274812		1.00133		-1.22448
0.226738		0.997683		-1.06746
0.281886		0.993781		-0.967438
0.33703		0.989893		-0.867426
0.392182		0.985982		-0.767445
0.550748		0.981356		-0.724475
0.654105		0.98077		-0.781471
0.757445		0.980222		-0.838487
0.860782		0.97969		-0.895513
0.964116		0.979169		-0.952546
0.172288		1.10141		-1.16358
0.17295		1.20129		-1.1597
0.173558		1.30123		-1.15586
0.174125		1.40121		-1.15208
0.229651		1.49744		-1.0483
0.284637		1.49366		-0.948293
0.339621		1.48989		-0.848285
0.394589		1.48613		-0.748277
0.449026		1.38236		-0.652041
0.448526		1.28235		-0.655828
0.448069		1.1823		-0.659655
0.44766		1.08222		-0.663541
0.346211		1.48293		-0.591483
0.242867		1.48352		-0.534703
0.139487		1.48418		-0.478014
0.0360566		1.48495		-0.421448
-0.067469		1.48595		-0.365249
-0.0758955		-0.0163839		-0.42229
0.0249173		-0.0165801		-0.477521
0.125745		-0.0169311		-0.533107
0.2266		-0.0173677		-0.588801
0.327484		-0.0178285		-0.644525
0.42838		-0.0183048		-0.700253
0.529295		-0.0187886		-0.755979
0.630223		-0.0192757		-0.811706
0.731159		-0.0197629		-0.86743
0.832101		-0.020252		-0.923155
0.933048		-0.0207416		-0.97888
1.034		-0.0212321		-1.03461
1.13495		-0.0217231		-1.09033
1.2359		-0.0222148		-1.14606
1.33685		-0.0227067		-1.20179
1.4378		-0.0231987		-1.25752
1.53875		-0.023691		-1.31325
1.63971		-0.0241836		-1.36898
1.74066		-0.0246765		-1.42471
1.84161		-0.0251696		-1.48044
1.94305		0.0743371		-1.53209
1.94354		0.174337		-1.52801
1.94403		0.274338		-1.52393
1.94452		0.374338		-1.51985
1.94501		0.474339		-1.51577
1.9455		0.57434		-1.51169
1.94599		0.674341		-1.50761
1.94647		0.774342		-1.50354
1.94696		0.874343		-1.49946
1.66703		0.094735		-2.03209
1.66752		0.194735		-2.02801
1.66801		0.294735		-2.02393
1.66849		0.394734		-2.01985
1.66898		0.494733		-2.01577
1.66947		0.594733		-2.01169
1.66996		0.694732		-2.00761
1.67045		0.794731		-2.00354
1.67094		0.89473		-1.99946
1.88736		-0.0215833		-1.63617
1.83215		-0.0175037		-1.73617
1.77695		-0.0134242		-1.83617
1.72174		-0.00934464		-1.93617
1.56654		-0.00477594		-1.98096
1.46654		-0.00428684		-1.92576
1.36654		-0.00379753		-1.87056
1.26654		-0.0033079		-1.81535
1.16654		-0.00281792		-1.76015
1.06654		-0.00232762		-1.70494
0.966537		-0.00183672		-1.64974
0.866535		-0.00134437		-1.59454
0.766533		-0.000851624		-1.53934
0.66653		-0.000357363		-1.48414
0.566525		0.000138992		-1.42894
0.466518		0.000636925		-1.37374
0.366507		0.00113831		-1.31855
0.266491		0.00164166		-1.26335
0.166467		0.00214682		-1.20816
0.0664293		0.00265213		-1.15297
-0.0336314		0.00315064		-1.09776
-0.133729		0.00364447		-1.04253
-0.233879		0.0041054		-0.987223
-0.334095		0.00449916		-0.931778
-0.434366		0.00481551		-0.876098
-0.534643		0.00495987		-0.82007
-0.634832		0.00495431		-0.763679
-0.73486		0.00476029		-0.706967
-0.834635		0.00440048		-0.650004
-0.934052		0.00391935		-0.592897
-1.03296		0.00332746		-0.535872
-1.13117		0.00242527		-0.479353
-1.229		0.00187075		-0.423532
-1.32617		0.000982914		-0.368912
-1.42292		0.000611181		-0.315614
-1.5191		0.000287562		-0.263733
-1.61455		-0.000305359		-0.213696
-1.70951		-0.000419969		-0.166275
-1.80425		-0.000431878		-0.121113
-1.89897		0.000270652		-0.0792252
-1.99442		0.00103215		-0.0403194
-2.09124		0.00178966		-0.0034442
-2.18988		0.00265461		0.0331275
-2.28971		0.10316		0.0714808
-2.2894		0.20352		0.0714474
-2.28902		0.304143		0.0714465
-2.28835		0.404772		0.0715557
-2.28754		0.505328		0.0714788
-2.28675		0.605941		0.0716851
-2.28593		0.706474		0.0719925
-2.28501		0.806964		0.0724093
-2.28398		0.907416		0.0727968
-2.28308		1.00794		0.0733473
-2.28217		1.10855		0.0739395
-2.28113		1.2092		0.0748716
-2.27992		1.30969		0.0757947
-2.27873		1.41029		0.0766246
-2.17793		1.50981		0.0418079
-2.07947		1.5097		0.00701334
-1.98229		1.51002		-0.0278064
-1.88659		1.51084		-0.0642093
-1.79134		1.51061		-0.103303
-1.69642		1.51062		-0.145068
-1.60117		1.51056		-0.18938
-1.50551		1.51041		-0.235742
-1.4093		1.51006		-0.283995
-1.31257		1.5095		-0.333821
-1.21546		1.50894		-0.384889
-1.11795		1.50837		-0.437111
-1.02001		1.50769		-0.490352
-0.921636		1.50703		-0.544308
-0.82296		1.50628		-0.598839
-0.723912		1.50557		-0.653709
-0.624514		1.50495		-0.708713
-0.52485		1.50444		-0.763741
-0.425072		1.50395		-0.81874
-0.325191		1.50351		-0.873685
-0.225256		1.50308		-0.928581
-0.125297		1.50266		-0.983468
-0.0253222		1.50222		-1.03838
0.0746717		1.50173		-1.09333
-2.1282		1.50877		0.464564
-2.16468		1.5088		0.37198
-2.20257		1.50887		0.276132
-2.24084		1.50958		0.177653
-2.25094		0.00241365		0.170539
-2.21114		0.00129498		0.269178
-2.17165		-0.000260951		0.365845
-2.13331		-0.00198442		0.459776
-1.60258		1.49108		0.408058
-1.49603		1.49081		0.363696
-1.38992		1.49032		0.317932
-1.28405		1.48975		0.270536
-1.17848		1.48925		0.221503
-1.07326		1.48885		0.170902
-0.968473		1.48848		0.118997
-0.864054		1.48817		0.0658426
-0.76009		1.48795		0.0115566
-0.656509		1.48792		-0.0437844
-0.660608		-0.0103407		-0.0932403
-0.763746		-0.00779622		-0.0342733
-0.867444		-0.00555537		0.0236079
-0.971646		-0.00344669		0.0804212
-1.07634		-0.0014166		0.136086
-1.18152		0.000540193		0.190325
-1.28716		0.00247448		0.243014
-1.39331		0.00442228		0.294109
-1.49973		0.00653821		0.343894
-1.60631		0.00871341		0.392455
-2.05001		0.0824873		0.786838
-2.04291		0.0763081		0.870312
-2.03882		0.0649985		0.95374
-2.03721		0.0605297		1.03602
-2.03704		0.0626148		1.11801
-2.03758		0.0688636		1.2018
-2.03843		0.0788958		1.28858
-2.04002		0.096927		1.47064
-2.04053		0.0990347		1.56313
-2.06114		0.0885852		0.705903
-2.03934		0.0917161		1.378
-2.07303		1.40067		0.6406
-2.05756		1.40556		0.730566
-2.04741		1.41273		0.820869
-2.04152		1.42045		0.909779
-2.03833		1.40402		1.09182
-2.03881		1.38857		1.20563
-2.03868		1.42204		0.999822
-2.04603		0.765034		1.57082
-2.04467		0.384957		1.43569
-2.04527		1.0465		1.50829
-2.04352		0.288134		1.06528
-2.04365		0.301013		1.22271
-2.0453		0.482538		1.54108
-2.04573		0.966045		1.53663
-2.04596		0.661763		1.56611
-2.04378		1.1974		1.22067
-2.0442		1.16905		1.32102
-2.04446		0.344717		1.2952
-2.05756		0.568843		0.703811
-2.05258		0.86051		0.728974
-2.04503		0.321022		0.951614
-2.04701		0.371075		0.887649
-2.04742		1.13775		0.873607
-2.04466		1.18286		0.997585
-2.05418		0.4974		0.746975
-2.0501		1.0448		0.808008
-2.04456		1.13686		1.40528
-2.05553		0.772041		0.699542
-2.05776		0.688924		0.685536
-2.07769		1.1929		0.616996
-2.06583		0.415408		0.662405
-2.07062		0.520167		0.628957
-2.07263		0.611251		0.611951
-2.07024		0.705138		0.615068
-2.0665		0.817404		0.629349
-2.07109		0.926771		0.618915
-2.0762		0.19429		0.62994
-2.07312		0.297206		0.640833
-2.07352		1.01938		0.61705
-2.07776		1.10396		0.610095
-2.04232		0.200827		1.65279
-2.04565		0.99279		1.63604
-2.04581		0.58728		1.65313
-2.04599		0.893557		1.64821
-2.04611		0.787868		1.65453
-2.04605		0.68483		1.65598
-2.04464		0.399355		1.64949
-2.0436		0.300799		1.65088
-2.04514		1.07567		1.61649
-2.03969		1.37584		1.33994
-2.04195		1.29613		1.45486
-2.04338		1.23042		1.53146
-2.04444		1.1526		1.58295
-2.07675		0.0946208		0.626514
-2.03902		0.132078		1.10725
-2.0401		0.15574		1.2657
-2.04448		0.160227		0.87875
-2.0406		0.129617		0.959654
-2.03922		0.12592		1.03346
-2.05124		0.165387		0.791114
-2.03939		0.141644		1.18449
-2.04126		0.190518		1.3563
-2.04121		1.30056		1.07606
-2.04299		1.33639		0.927937
-2.04804		1.32174		0.837553
-2.0414		1.29089		1.21116
-2.04063		1.3567		0.99907
-2.05506		0.358629		0.757514
-2.06147		0.180599		0.710922
-2.05938		0.271929		0.725654
-2.05886		0.955516		0.694242
-2.06628		1.11099		0.66792
-2.05845		1.05584		0.710882
-2.04574		0.566818		1.55375
-2.04202		0.198377		1.55687
-2.04537		0.493873		1.65161
-2.04343		0.296896		1.55097
-2.04311		1.22747		1.41686
-2.04322		0.25947		0.995373
-2.04174		0.225051		1.237
-2.04348		0.21928		0.935489
-2.04705		0.224902		0.857428
-2.04319		0.284398		1.36962
-2.0478		1.23352		0.858469
-2.04373		1.20372		1.10993
-2.05683		1.31334		0.745041
-2.05503		1.14984		0.757709
-2.04902		0.312366		0.834946
-2.04461		0.394645		1.54425
-2.04456		1.12971		1.49192
-2.04329		0.289629		1.45436
-2.04572		0.268777		0.895105
-2.04119		0.206776		1.0904
-2.0414		0.216458		1.16345
-2.05502		1.23105		0.763947
-2.07123		1.2902		0.647418
-2.05122		0.243069		0.801172
-2.04213		1.26843		1.32394
-2.04355		1.25841		0.964423
-2.04166		0.193859		1.4606
-2.04092		0.0995832		1.65565
-2.05142		0.953848		0.762085
-2.04999		0.429304		0.813371
-2.04361		0.297196		1.14386
-2.04461		0.363564		1.35421
-2.06156		0.621504		0.667019
-2.04597		0.868811		1.56122
-2.04338		0.29219		1.29598
-2.05847		0.877579		0.687883
-2.04215		0.238206		1.29426
-2.04371		1.19605		1.48271
-2.06438		1.17067		0.683557
-2.04125		0.193184		1.02435
-2.04173		0.179742		0.972074
-2.06321		1.22786		0.698222
-1.67038		0.0948152		0.742462
-1.66343		0.0887069		0.839807
-1.65932		0.0768801		0.934022
-1.65766		0.071231		1.02403
-1.65741		0.0719628		1.11134
-1.65788		0.0769394		1.19865
-1.65865		0.0858897		1.28761
-1.66012		0.102488		1.47146
-1.66059		0.104168		1.56417
-1.68084		0.100086		0.645034
-1.65949		0.0978905		1.37822
-1.69163		1.38905		0.566875
-1.67699		1.39392		0.677352
-1.66722		1.4006		0.783838
-1.66141		1.40853		0.88546
-1.65828		1.39499		1.08376
-1.65879		1.38081		1.20243
-1.6586		1.41123		0.985127
-1.66606		0.765064		1.57092
-1.66471		0.387706		1.43595
-1.66528		1.04437		1.50881
-1.6637		0.292311		1.05849
-1.66374		0.30443		1.22153
-1.66533		0.484785		1.54134
-1.66574		0.964766		1.53695
-1.66601		0.662365		1.56621
-1.66375		1.19406		1.21956
-1.66419		1.1659		1.3211
-1.66447		0.347225		1.29496
-1.67785		0.570405		0.668046
-1.67296		0.859115		0.710252
-1.66539		0.32545		0.939013
-1.66745		0.374896		0.871407
-1.66761		1.1335		0.854981
-1.66462		1.17911		0.988956
-1.6747		0.500062		0.716685
-1.67053		1.04183		0.788664
-1.66455		1.13398		1.40574
-1.67578		0.771164		0.673216
-1.67794		0.688656		0.652456
-1.69608		1.18939		0.541088
-1.68584		0.416454		0.602682
-1.68959		0.519623		0.564062
-1.69099		0.610496		0.545015
-1.6888		0.704453		0.552816
-1.6858		0.81638		0.573111
-1.68987		0.925361		0.553953
-1.69504		0.200531		0.552495
-1.69222		0.300389		0.568995
-1.69224		1.01789		0.547776
-1.69598		1.10172		0.534309
-1.66238		0.205413		1.65381
-1.66568		0.991191		1.63673
-1.66591		0.588719		1.65353
-1.66603		0.892706		1.64868
-1.66617		0.787768		1.65487
-1.66613		0.685477		1.6563
-1.66474		0.402542		1.65017
-1.66369		0.304796		1.65174
-1.66516		1.07339		1.6174
-1.65969		1.36914		1.33947
-1.66196		1.29101		1.45561
-1.66339		1.22651		1.53257
-1.66446		1.14961		1.58403
-1.69512		0.105289		0.545695
-1.65933		0.140309		1.10035
-1.66029		0.162155		1.26442
-1.665		0.169564		0.850906
-1.66106		0.139471		0.941306
-1.65961		0.135073		1.02175
-1.67173		0.174276		0.749117
-1.65964		0.148942		1.18099
-1.66138		0.196067		1.35632
-1.66115		1.29365		1.06834
-1.66295		1.32727		0.906828
-1.66806		1.31304		0.804762
-1.66136		1.28492		1.20885
-1.66058		1.34755		0.984912
-1.67555		0.3623		0.717408
-1.68143		0.187993		0.653343
-1.67962		0.276616		0.674176
-1.67902		0.953729		0.654032
-1.68591		1.10827		0.609931
-1.67878		1.05324		0.667805
-1.66578		0.56816		1.5539
-1.66209		0.203183		1.55775
-1.66547		0.496156		1.65213
-1.6635		0.301006		1.55162
-1.66311		1.22301		1.41746
-1.66353		0.265226		0.983229
-1.66189		0.230481		1.23531
-1.66392		0.226648		0.916345
-1.6676		0.232202		0.828018
-1.66325		0.288671		1.36966
-1.66793		1.22732		0.831432
-1.66367		1.20014		1.10601
-1.67676		1.30542		0.696928
-1.67539		1.146		0.718784
-1.66962		0.317526		0.80612
-1.66466		0.397772		1.54472
-1.66456		1.12672		1.4927
-1.66335		0.293872		1.45478
-1.66622		0.275015		0.872832
-1.66145		0.213422		1.08325
-1.66159		0.222397		1.15963
-1.67524		1.22562		0.721801
-1.6908		1.28379		0.578506
-1.6718		0.249584		0.763242
-1.66212		1.26311		1.32366
-1.66354		1.25173		0.949208
-1.66175		0.198983		1.46123
-1.66096		0.104457		1.65675
-1.67188		0.951667		0.743906
-1.67059		0.432778		0.790902
-1.66372		0.300549		1.14091
-1.66462		0.366134		1.35429
-1.68119		0.62168		0.623072
-1.66599		0.868271		1.5614
-1.66344		0.296053		1.29559
-1.67852		0.876264		0.651419
-1.66226		0.243212		1.29363
-1.66371		1.19224		1.4836
-1.68429		1.16695		0.627279
-1.66158		0.200629		1.01268
-1.66214		0.187976		0.955622
-1.68304		1.22284		0.643024
-2.00229		0.0999718		0.51367
-2.00263		0.200824		0.513666
-2.00139		0.301422		0.513308
-1.99905		0.401604		0.513165
-1.99674		0.501327		0.511759
-1.9941		0.601121		0.510152
-1.99237		0.701202		0.509749
-1.99225		0.801241		0.510357
-1.99353		0.901278		0.510886
-1.99561		1.00135		0.512069
-1.99802		1.10163		0.513294
-2		1.2022		0.514864
-2.00055		1.30306		0.516848
-1.99997		1.40442		0.517794
-1.90427		0.102931		0.495859
-1.90434		0.202993		0.496061
-1.90298		0.302853		0.496518
-1.90058		0.402496		0.497111
-1.89745		0.502082		0.497896
-1.89408		0.601654		0.498562
-1.89229		0.701173		0.498954
-1.89249		0.800705		0.499048
-1.89366		0.900329		0.499053
-1.89608		1.00018		0.498943
-1.8987		1.10024		0.49896
-1.90111		1.20044		0.499176
-1.90228		1.30067		0.499685
-1.90205		1.40111		0.500744
-1.80919		0.106118		0.477937
-1.80918		0.205139		0.478445
-1.80788		0.304244		0.479452
-1.80539		0.403354		0.480853
-1.80346		0.502759		0.483827
-1.80121		0.602174		0.486653
-1.79947		0.701236		0.487802
-1.7991		0.800267		0.487573
-1.80047		0.899467		0.487038
-1.80246		0.999122		0.485787
-1.80481		1.09886		0.48466
-1.80651		1.19876		0.48357
-1.80673		1.29823		0.482944
-1.80648		1.3974		0.483512
-1.80987		1.39727		0.478594
-1.8105		1.29841		0.477009
-1.81066		1.19926		0.475872
-1.81005		1.09988		0.475249
-1.81036		1.00032		0.473961
-1.81023		0.900605		0.473076
-1.8102		0.800946		0.472269
-1.81073		0.701288		0.471474
-1.81063		0.601741		0.470774
-1.81112		0.502144		0.470227
-1.81205		0.402526		0.469615
-1.81223		0.303426		0.46934
-1.81254		0.204328		0.468851
-1.81268		0.105817		0.469132
-1.90744		1.40098		0.507814
-1.90852		1.30096		0.507052
-1.90869		1.20096		0.505945
-1.90827		1.10144		0.505215
-1.90791		1.00145		0.504433
-1.90764		0.901578		0.503607
-1.90759		0.801741		0.50286
-1.90785		0.701804		0.502185
-1.90832		0.602023		0.501671
-1.90871		0.50231		0.501347
-1.90942		0.402409		0.501077
-1.91013		0.302562		0.500653
-1.90987		0.202781		0.500466
-1.90989		0.102789		0.500348
-2.00474		1.40478		0.535948
-2.00605		1.30335		0.535781
-2.00663		1.20253		0.535117
-2.00628		1.10231		0.534265
-2.00552		1.00208		0.533308
-2.00503		0.902082		0.532428
-2.00471		0.80219		0.532102
-2.00419		0.702281		0.531753
-2.00556		0.602167		0.531197
-2.00611		0.502319		0.53091
-2.00672		0.402301		0.531054
-2.00744		0.301867		0.530852
-2.00765		0.201238		0.530763
-2.00673		0.0999317		0.529789
-1.94455		-0.00202599		1.6588
-1.94407		-0.00189143		1.56957
-1.94343		-0.00182611		1.48038
-1.94262		-0.00182028		1.39126
-1.94167		-0.00186512		1.30225
-1.94063		-0.00196408		1.21343
-1.93974		-0.00209999		1.12491
-1.93941		-0.00224213		1.03678
-1.94039		-0.00233496		0.949151
-1.94368		-0.00225519		0.862108
-1.95021		-0.00192616		0.775724
-1.96106		-0.00127097		0.689993
-1.97763		-0.000104655		0.605187
-1.84956		-0.000817195		1.65899
-1.84908		-0.000615803		1.5697
-1.84844		-0.000439268		1.48036
-1.84764		-0.0002733		1.39098
-1.84667		-9.74999e-05		1.30154
-1.84562		0.000112631		1.21202
-1.84468		0.000380469		1.12242
-1.84429		0.000726691		1.03276
-1.84518		0.00116646		0.943043
-1.84836		0.00169587		0.853311
-1.85475		0.00229612		0.763614
-1.86543		0.0028985		0.674113
-1.88127		0.00340155		0.585427
-1.75456		0.000395739		1.65918
-1.7541		0.000661453		1.56982
-1.75348		0.000944996		1.48034
-1.75271		0.0012662		1.3907
-1.75179		0.00165754		1.30081
-1.7508		0.00217192		1.21058
-1.74995		0.00284042		1.11992
-1.74967		0.00367354		1.02873
-1.75069		0.00464179		0.936962
-1.754		0.00561428		0.844611
-1.76043		0.00647289		0.751693
-1.77078		0.0070937		0.65844
-1.78553		0.0068102		0.564962
-1.95082		1.01844		1.74979
-1.95118		0.91644		1.74983
-1.95132		0.814364		1.74985
-1.9513		0.71223		1.74981
-1.95111		0.61005		1.74969
-1.9507		0.507848		1.74949
-1.94997		0.405664		1.74921
-1.94893		0.303547		1.74889
-1.94765		0.201536		1.74857
-1.94624		0.0996318		1.74828
-1.85585		1.01801		1.75004
-1.85622		0.916156		1.75002
-1.85637		0.814277		1.74999
-1.85636		0.71236		1.74994
-1.85618		0.610405		1.74984
-1.85577		0.508424		1.74968
-1.85504		0.406448		1.74945
-1.85398		0.304507		1.74916
-1.85267		0.202618		1.74885
-1.85124		0.100777		1.74855
-1.76084		1.01757		1.75029
-1.76121		0.91587		1.75021
-1.76137		0.814188		1.75014
-1.76136		0.712489		1.75008
-1.76119		0.610758		1.75001
-1.76078		0.509		1.74989
-1.76004		0.407232		1.7497
-1.75898		0.305466		1.74944
-1.75768		0.203702		1.74913
-1.75625		0.101925		1.74881
-1.94404		1.42519		1.44639
-1.94636		1.34891		1.5221
-1.9482		1.27265		1.5979
-1.94943		1.19646		1.67382
-1.84902		1.42395		1.44606
-1.85138		1.34794		1.52207
-1.85323		1.27191		1.59808
-1.85446		1.19587		1.67407
-1.75405		1.42271		1.44572
-1.75637		1.34697		1.52205
-1.75821		1.27117		1.59826
-1.75944		1.19529		1.67433
-1.97484		1.50339		0.6176
-1.9585		1.5036		0.708815
-1.94835		1.5035		0.801172
-1.94266		1.50327		0.894345
-1.9402		1.5029		0.988385
-1.93981		1.50248		1.08316
-1.94038		1.50215		1.17855
-1.94123		1.50188		1.27448
-1.87823		1.4995		0.599168
-1.86279		1.4993		0.694226
-1.85276		1.49937		0.790377
-1.8472		1.49952		0.886811
-1.84488		1.49967		0.983367
-1.8446		1.4998		1.08
-1.84526		1.49988		1.17667
-1.84619		1.49992		1.27335
-1.78246		1.49578		0.580132
-1.768		1.49503		0.679927
-1.75823		1.49525		0.779781
-1.7526		1.49576		0.879354
-1.75016		1.49644		0.978371
-1.74979		1.49712		1.07685
-1.75038		1.49761		1.17479
-1.75123		1.49797		1.27223
-1.95098		0.847057		1.49222
-1.95098		0.9375		1.45476
-1.95098		1.01517		1.39517
-1.95098		1.07476		1.3175
-1.95098		1.11222		1.22706
-1.95098		1.125		1.13
-1.95098		1.11222		1.03294
-1.95098		1.07476		0.9425
-1.95098		1.01517		0.864835
-1.95098		0.9375		0.80524
-1.95098		0.847057		0.767778
-1.85598		0.847057		1.49222
-1.85598		0.9375		1.45476
-1.85598		1.01517		1.39517
-1.85598		1.07476		1.3175
-1.85598		1.11222		1.22706
-1.85598		1.125		1.13
-1.85598		1.11222		1.03294
-1.85598		1.07476		0.9425
-1.85598		1.01517		0.864835
-1.85598		0.9375		0.80524
-1.85598		0.847057		0.767778
-1.76098		0.847057		1.49222
-1.76098		0.9375		1.45476
-1.76098		1.01517		1.39517
-1.76098		1.07476		1.3175
-1.76098		1.11222		1.22706
-1.76098		1.125		1.13
-1.76098		1.11222		1.03294
-1.76098		1.07476		0.9425
-1.76098		1.01517		0.864835
-1.76098		0.9375		0.80524
-1.76098		0.847057		0.767778
-1.95098		0.652943		0.767778
-1.95098		0.5625		0.80524
-1.95098		0.484835		0.864835
-1.95098		0.42524		0.9425
-1.95098		0.387778		1.03294
-1.95098		0.375		1.13
-1.95098		0.387778		1.22706
-1.95098		0.42524		1.3175
-1.95098		0.484835		1.39517
-1.95098		0.5625		1.45476
-1.95098		0.652943		1.49222
-1.85598		0.652943		0.767778
-1.85598		0.5625		0.80524
-1.85598		0.484835		0.864835
-1.85598		0.42524		0.9425
-1.85598		0.387778		1.03294
-1.85598		0.375		1.13
-1.85598		0.387778		1.22706
-1.85598		0.42524		1.3175
-1.85598		0.484835		1.39517
-1.85598		0.5625		1.45476
-1.85598		0.652943		1.49222
-1.76098		0.652943		0.767778
-1.76098		0.5625		0.80524
-1.76098		0.484835		0.864835
-1.76098		0.42524		0.9425
-1.76098		0.387778		1.03294
-1.76098		0.375		1.13
-1.76098		0.387778		1.22706
-1.76098		0.42524		1.3175
-1.76098		0.484835		1.39517
-1.76098		0.5625		1.45476
-1.76098		0.652943		1.49222
0.0789597		0.793118		0.994753
0.0840576		0.486555		0.993691
0.0914037		0.298463		1.00478
0.0904751		0.117392		0.99986
0.088202		0.392332		1.00017
0.0936416		0.888723		1.02866
0.0861822		0.683692		1.002
0.0850954		0.583902		0.996965
0.0923341		0.205991		1.00494
0.093197		0.986459		1.03557
-0.0190263		0.0346924		0.802458
-0.177463		0.0298916		0.518956
-0.344027		0.0611139		0.223443
-0.228567		0.0306397		0.427669
-0.452717		0.0734734		0.0310096
-0.0720491		0.0317936		0.707583
-0.284771		0.0585516		0.328756
-0.124756		0.0295582		0.613222
-0.399041		0.0673186		0.125991
0.0347602		0.0302935		0.898383
-0.44788		1.38594		0.0841006
-0.393256		1.3829		0.182499
-0.337613		1.38246		0.282873
-0.2841		1.39278		0.379748
-0.233486		1.39717		0.471369
-0.500889		1.3878		-0.0111078
-0.180438		1.37608		0.566691
0.0398377		0.756466		0.921068
0.0366787		0.583587		0.909002
-0.361984		0.342151		0.204065
-0.279426		0.282879		0.348569
-0.364513		1.09217		0.226771
-0.0520157		1.09666		0.783975
-0.41088		0.435978		0.12097
-0.179965		0.242251		0.523388
-0.15301		1.14593		0.607302
-0.243056		0.242606		0.41144
-0.431399		0.514864		0.0878825
-0.436222		0.864502		0.0920082
-0.30455		1.15366		0.336276
0.0249341		0.473778		0.887513
-0.0485909		0.327605		0.757081
0.0353551		0.860971		0.920755
-0.138241		0.270315		0.598117
-0.0133728		0.413741		0.819373
-0.256544		1.15556		0.422603
-0.114018		1.12319		0.67551
-0.0198726		1.02232		0.83568
-0.385127		1.01753		0.187938
-0.453292		0.680471		0.0554329
-0.461607		0.79434		0.0443949
-0.503896		0.991464		-0.026373
-0.49702		0.710207		-0.021801
-0.49776		0.593261		-0.0273824
-0.503974		1.19361		-0.0218167
-0.519955		0.789624		-0.0601729
-0.505868		0.177555		-0.0591569
-0.505579		0.274673		-0.0548779
-0.504786		1.0943		-0.025603
-0.501152		0.875201		-0.0242956
-0.488519		0.479767		-0.0158806
-0.502719		0.372543		-0.0457051
-0.105545		1.33479		0.700649
0.0290345		1.0758		0.927124
-0.00333565		1.1543		0.874795
-0.0476605		1.23867		0.80039
0.0875904		0.0281852		0.9926
0.0401888		0.374919		0.914402
0.0478243		0.199851		0.925619
0.0466834		0.286698		0.925042
-0.505262		0.0795865		-0.061266
-0.12319		0.112765		0.619159
-0.0722007		0.122901		0.710291
0.040301		0.118893		0.910459
-0.247049		0.130765		0.399204
-0.344034		0.157663		0.227636
-0.300537		0.128906		0.303846
-0.40139		0.159723		0.125565
-0.177486		0.118718		0.522678
-0.274102		1.31515		0.395546
-0.236243		1.34054		0.464629
-0.395232		1.28853		0.176376
-0.33123		1.2796		0.291524
-0.202073		1.30223		0.52501
-0.455527		0.26081		0.0331459
-0.454944		0.350187		0.0381266
-0.454376		0.167616		0.0314454
-0.457465		1.10229		0.0594588
-0.414879		1.04245		0.134808
0.00922252		0.93728		0.880321
-0.0884559		1.17486		0.723853
-0.148581		1.23894		0.61904
-0.450486		1.29136		0.0767561
-0.0374469		0.237841		0.775128
-0.212739		0.187827		0.462894
-0.305964		0.219124		0.298177
-0.0802871		0.212251		0.698693
-0.124915		0.193405		0.619029
-0.361342		0.250604		0.200844
-0.295641		1.22386		0.354105
-0.351545		1.17853		0.252215
-0.201195		1.20636		0.523338
-0.413267		0.947018		0.135484
-0.450959		0.420341		0.048525
-0.406865		0.345474		0.123876
-0.411621		1.10892		0.142204
-0.502548		1.29061		-0.0167965
0.0122954		0.204319		0.862532
-0.405697		0.252118		0.121742
-0.00509399		0.346929		0.833924
-0.274388		0.178525		0.352602
-0.160509		0.18565		0.555574
-0.245243		1.24314		0.445332
-0.403397		1.19488		0.159152
0.0491656		0.979618		0.955613
0.0417052		0.682208		0.920584
-0.0910806		0.298825		0.681826
-0.320772		0.321961		0.276779
-0.447219		0.604495		0.0634243
-0.204142		1.15007		0.516285
0.0603176		0.907623		0.969818
-0.463819		0.907865		0.043509
0.00295138		0.268507		0.847198
-0.219798		0.0922447		0.446095
-0.452664		0.999345		0.0657414
-0.329671		0.262891		0.257938
-0.45435		1.19681		0.0673327
-0.0160536		0.141052		0.810712
0.459891		0.793072		0.78405
0.46513		0.486491		0.782794
0.472232		0.298332		0.793803
0.471147		0.11721		0.788824
0.469192		0.392237		0.789232
0.475023		0.888649		0.818013
0.46733		0.683656		0.791227
0.466213		0.583859		0.786123
0.47303		0.20583		0.793928
0.474432		0.986352		0.824967
0.361738		0.0344301		0.591378
0.203389		0.029378		0.307723
0.0372345		0.0602032		0.0118541
0.152396		0.0300173		0.216354
-0.0718356		0.0721038		-0.181012
0.308733		0.0314666		0.49647
0.0964275		0.0577901		0.117321
0.256042		0.0291468		0.402059
-0.0178331		0.0662248		-0.0857817
0.415464		0.0300768		0.687324
-0.0674991		1.38476		-0.125558
-0.0128351		1.38184		-0.0273258
0.042768		1.38152		0.0728976
0.0961365		1.39197		0.169643
0.146587		1.39647		0.261155
-0.120505		1.38649		-0.220584
0.199656		1.3755		0.356383
0.419523		0.756419		0.710339
0.416608		0.583535		0.698156
0.0189754		0.341096		-0.00745387
0.102631		0.282021		0.137226
0.0159091		1.09104		0.0167755
0.329308		1.09638		0.573415
-0.0309501		0.43487		-0.0905391
0.202717		0.241703		0.312251
0.229181		1.14541		0.396846
0.139242		0.241874		0.200177
-0.0518542		0.513772		-0.123468
-0.0569032		0.86338		-0.118089
0.0766274		1.15267		0.126131
0.40548		0.473691		0.676607
0.333314		0.327379		0.5461
0.41566		0.860894		0.710089
0.244499		0.269884		0.387048
0.367678		0.413598		0.608438
0.125117		1.15471		0.212342
0.268105		1.12278		0.465008
0.361174		1.02213		0.625085
-0.00511099		1.01636		-0.0220059
-0.0740835		0.679403		-0.15532
-0.0822096		0.793217		-0.165927
-0.123855		0.990067		-0.236204
-0.117269		0.709011		-0.232406
-0.117919		0.591953		-0.238405
-0.123922		1.19223		-0.231402
-0.139612		0.788097		-0.270465
-0.125904		0.175811		-0.271323
-0.125742		0.273012		-0.266831
-0.124731		1.09289		-0.235266
-0.121231		0.873889		-0.234373
-0.108819		0.478475		-0.227269
-0.122872		0.370994		-0.257376
0.274664		1.33435		0.490241
0.40968		1.07562		0.716547
0.377237		1.15406		0.664252
0.332808		1.23833		0.589898
0.468317		0.0279926		0.781551
0.421107		0.374798		0.703455
0.42866		0.199668		0.714604
0.427605		0.286545		0.71406
-0.124808		0.077722		-0.273673
0.2582		0.112351		0.408026
0.309074		0.122575		0.499206
0.421087		0.118689		0.699421
0.134507		0.130065		0.187882
0.0372933		0.156715		0.0160835
0.0809045		0.128078		0.0923969
-0.0203862		0.158595		-0.0861631
0.204069		0.118189		0.311478
0.106528		1.31433		0.185393
0.144213		1.33982		0.254406
-0.0148048		1.28743		-0.0334899
0.0494255		1.27863		0.0814879
0.178627		1.30158		0.314706
-0.0753675		0.259461		-0.178633
-0.0749602		0.3489		-0.173516
-0.0739574		0.166223		-0.18048
-0.0775229		1.10103		-0.150363
-0.034915		1.04126		-0.0751124
0.389795		0.937156		0.66969
0.292907		1.17448		0.513349
0.232634		1.23842		0.408622
-0.0703125		1.29014		-0.132956
0.344097		0.237591		0.564114
0.169403		0.187196		0.251674
0.0756437		0.21824		0.0867562
0.30153		0.211929		0.487646
0.257084		0.192991		0.407937
0.0198221		0.249578		-0.0107036
0.0853358		1.22294		0.143956
0.029149		1.17746		0.0421887
0.180365		1.20569		0.31298
-0.0336841		0.945847		-0.0744729
-0.0710907		0.419112		-0.163002
-0.0264202		0.344341		-0.0877067
-0.0314752		1.10774		-0.0677053
-0.122413		1.28925		-0.226333
0.393334		0.204111		0.651517
-0.0249447		0.250972		-0.0899146
0.376191		0.346763		0.622964
0.107304		0.177737		0.141241
0.221565		0.185154		0.344436
0.135895		1.24236		0.235073
-0.023065		1.19373		-0.0507443
0.429941		0.979498		0.745
0.421381		0.682166		0.709805
0.291329		0.298515		0.470812
0.0607283		0.320978		0.0653318
-0.0679345		0.60345		-0.147635
0.177994		1.14939		0.305915
0.441131		0.907536		0.759175
-0.0841861		0.906652		-0.166522
0.384168		0.268315		0.636207
0.161561		0.0916212		0.234811
-0.0728863		0.998115		-0.144169
0.0517564		0.261929		0.0464704
-0.0743035		1.19556		-0.142433
0.365034		0.140801		0.599665
-0.311007		0.62867		0.0855638
-0.290377		0.535404		0.118742
-0.257597		0.453957		0.173856
-0.214842		0.389541		0.247172
-0.164984		0.34699		0.333407
-0.111329		0.328996		0.426693
-0.0574756		0.33778		0.520698
-0.00710462		0.372017		0.608919
0.0363131		0.429465		0.685462
0.0697734		0.506089		0.744774
0.0909041		0.596557		0.783341
-0.216377		0.628304		0.0327052
-0.195597		0.535054		0.0658495
-0.162547		0.453642		0.120976
-0.119467		0.389303		0.194303
-0.0693007		0.34684		0.280556
-0.0154449		0.328922		0.373865
0.0384215		0.337743		0.467878
0.0886245		0.37199		0.556128
0.13174		0.429434		0.632715
0.16482		0.506074		0.692132
0.185613		0.596555		0.73081
-0.121742		0.627991		-0.019903
-0.100811		0.534767		0.0130997
-0.0674924		0.45338		0.0681034
-0.0240957		0.389046		0.141402
0.0263749		0.346578		0.227677
0.0804299		0.328671		0.321039
0.134309		0.337533		0.415106
0.184344		0.371844		0.503386
0.227158		0.429358		0.579972
0.25986		0.506028		0.639321
0.280319		0.596531		0.677921
0.0909334		0.794447		0.791566
0.0698611		0.888651		0.761161
0.0364672		0.97068		0.708657
-0.00684534		1.03512		0.637386
-0.0570644		1.07691		0.551701
-0.110814		1.09381		0.458069
-0.164466		1.08429		0.362866
-0.214424		1.04939		0.272757
-0.257314		0.991661		0.194403
-0.29024		0.91518		0.13296
-0.31096		0.825078		0.0928407
0.185621		0.794427		0.73908
0.164855		0.888586		0.708608
0.131827		0.970561		0.656031
0.0887877		1.03495		0.58473
0.0386646		1.07667		0.499082
-0.0151392		1.09354		0.405504
-0.0689642		1.08401		0.310356
-0.119151		1.04911		0.220282
-0.162291		0.991377		0.141907
-0.19543		0.914882		0.0803917
-0.216292		0.824753		0.0401725
0.280313		0.794416		0.686215
0.259856		0.888581		0.65584
0.227196		0.970552		0.603371
0.184431		1.03493		0.532144
0.134404		1.07664		0.446519
0.0805443		1.09346		0.352959
0.0265446		1.08385		0.257825
-0.0238756		1.04887		0.167767
-0.0672655		0.991083		0.0894454
-0.100618		0.914545		0.0279688
-0.12162		0.824399		-0.0122563
0.232931		0.956798		1.06195
0.23282		0.864256		1.05475
0.232766		0.772405		1.04854
0.232761		0.680842		1.04369
0.232852		0.589212		1.04056
0.233001		0.497067		1.0387
0.233155		0.40425		1.03747
0.233267		0.310843		1.03631
0.23331		0.217074		1.03485
0.233273		0.123191		1.033
0.233124		0.0293633		1.0308
0.328551		0.956758		1.00947
0.328554		0.864251		1.00228
0.328573		0.772392		0.99611
0.328599		0.680814		0.991241
0.328626		0.58916		0.988073
0.328646		0.497007		0.986152
0.328654		0.404195		0.98485
0.328647		0.310798		0.98364
0.328625		0.217036		0.982158
0.328589		0.123168		0.980297
0.328545		0.0294085		0.978178
0.424173		0.956733		0.956644
0.424289		0.864195		0.949426
0.42438		0.77235		0.943191
0.424437		0.680788		0.9383
0.424398		0.589158		0.935143
0.424289		0.497007		0.933255
0.424151		0.404181		0.931998
0.424025		0.310765		0.930818
0.423937		0.216987		0.929344
0.423904		0.123098		0.927477
0.423966		0.0292691		0.925278
0.0654601		1.37671		0.787579
0.107451		1.29557		0.859345
0.149423		1.21378		0.930205
0.191346		1.13187		1.00016
0.160318		1.37655		0.734931
0.202336		1.29543		0.806684
0.244385		1.21367		0.877554
0.286465		1.13179		0.94759
0.25518		1.37655		0.682349
0.297226		1.29544		0.754099
0.339352		1.21368		0.824939
0.381587		1.13179		0.894886
-0.404055		1.48492		-0.0581459
-0.350664		1.48221		0.0376778
-0.297361		1.47959		0.133783
-0.243967		1.47696		0.230142
-0.190505		1.47417		0.326804
-0.137013		1.47098		0.423806
-0.0835167		1.46712		0.521076
-0.0300246		1.46244		0.618363
-0.308898		1.48456		-0.110706
-0.255627		1.48188		-0.0148725
-0.202301		1.47931		0.0812721
-0.148939		1.4767		0.17763
-0.0955451		1.47392		0.274265
-0.0421192		1.47074		0.371233
0.0113376		1.4669		0.468466
0.0648174		1.46224		0.565731
-0.213747		1.48428		-0.16289
-0.160569		1.48165		-0.067186
-0.107231		1.47908		0.0288308
-0.0539021		1.47651		0.125115
-0.000576381		1.47377		0.22171
0.0527808		1.47065		0.318657
0.106197		1.46685		0.415889
0.159664		1.4622		0.513153
0.180017		-0.0618864		0.932886
0.126587		-0.0598623		0.83755
0.0731685		-0.0577608		0.741953
0.0197586		-0.0553548		0.646122
-0.0336779		-0.0524195		0.550105
-0.0871693		-0.0487808		0.454038
-0.140722		-0.0444199		0.358097
-0.194329		-0.0394163		0.262506
-0.247959		-0.0341187		0.167258
-0.301556		-0.0287601		0.0724071
-0.35507		-0.0235603		-0.0221232
-0.408696		-0.0185112		-0.116224
0.275094		-0.0619006		0.880335
0.221684		-0.0598834		0.784853
0.168265		-0.0577787		0.68919
0.114832		-0.0553723		0.593338
0.061382		-0.0524443		0.497312
0.00791092		-0.0488291		0.401242
-0.0455827		-0.0445117		0.305293
-0.099107		-0.0395646		0.209681
-0.152662		-0.0343267		0.1144
-0.206254		-0.0290237		0.0194634
-0.259893		-0.0238102		-0.0752607
-0.313602		-0.0189048		-0.169678
0.370169		-0.0619841		0.827365
0.31678		-0.0599709		0.73203
0.263359		-0.0578906		0.63643
0.209903		-0.0555157		0.540588
0.156438		-0.0526216		0.444553
0.102986		-0.0490331		0.348457
0.0495497		-0.0447291		0.252474
-0.00389319		-0.039786		0.156828
-0.0573741		-0.0345559		0.0615177
-0.110964		-0.0292855		-0.033407
-0.164733		-0.0242296		-0.128034
-0.218506		-0.0194321		-0.222312
-0.462427		0.0858489		-0.208644
-0.461969		0.186629		-0.204063
-0.461563		0.287247		-0.199286
-0.461213		0.387674		-0.194239
-0.460866		0.487811		-0.189212
-0.460599		0.587752		-0.184415
-0.460323		0.687469		-0.180102
-0.460019		0.787138		-0.176317
-0.459726		0.88699		-0.17312
-0.459422		0.986942		-0.170201
-0.459102		1.08709		-0.167396
-0.458766		1.18734		-0.164524
-0.4584		1.28767		-0.161478
-0.458025		1.38802		-0.158318
-0.366879		0.0852802		-0.261952
-0.366461		0.186132		-0.257513
-0.366097		0.286833		-0.252618
-0.365776		0.387302		-0.247476
-0.365476		0.487478		-0.242329
-0.365185		0.587414		-0.237387
-0.364893		0.687137		-0.232948
-0.364608		0.78681		-0.22905
-0.364302		0.886607		-0.225789
-0.363974		0.986546		-0.222839
-0.363631		1.08669		-0.220019
-0.363272		1.18698		-0.217146
-0.362899		1.28734		-0.214112
-0.362518		1.38772		-0.210853
-0.271341		0.0848685		-0.314753
-0.270921		0.185682		-0.310094
-0.270615		0.286343		-0.30521
-0.270337		0.386809		-0.300046
-0.27009		0.486993		-0.294876
-0.269784		0.586986		-0.289932
-0.269496		0.686763		-0.285444
-0.269207		0.786473		-0.2815
-0.268901		0.886282		-0.278153
-0.268552		0.986224		-0.275134
-0.268182		1.08637		-0.272264
-0.2678		1.18664		-0.269344
-0.26739		1.28699		-0.266262
-0.26699		1.38732		-0.263088
-0.266729		1.38735		-0.259858
-0.267115		1.28703		-0.262961
-0.267572		1.18684		-0.266322
-0.26792		1.08672		-0.269697
-0.268325		0.986583		-0.273175
-0.268663		0.886464		-0.276677
-0.268994		0.786328		-0.280321
-0.269306		0.686181		-0.284083
-0.269573		0.58604		-0.287992
-0.269841		0.485868		-0.292022
-0.270057		0.385658		-0.296083
-0.270347		0.285393		-0.300242
-0.270633		0.185078		-0.304504
-0.271058		0.0844588		-0.309071
-0.362155		1.38781		-0.207438
-0.362563		1.2875		-0.21053
-0.362991		1.18735		-0.213838
-0.363336		1.08724		-0.217218
-0.363708		0.987152		-0.220637
-0.36403		0.887032		-0.224115
-0.364309		0.786902		-0.227701
-0.364607		0.686783		-0.231377
-0.364859		0.586623		-0.235153
-0.365127		0.48647		-0.239004
-0.36537		0.38627		-0.242931
-0.365641		0.286039		-0.246909
-0.365906		0.1857		-0.251053
-0.366322		0.0849746		-0.255621
-0.457781		1.38808		-0.155202
-0.45823		1.28782		-0.158418
-0.458606		1.18778		-0.161686
-0.458913		1.08773		-0.165028
-0.459331		0.987664		-0.168388
-0.45958		0.887588		-0.171742
-0.459849		0.787512		-0.175248
-0.460173		0.687445		-0.178847
-0.460347		0.587356		-0.182535
-0.460586		0.48728		-0.18632
-0.460868		0.387089		-0.190031
-0.461113		0.286903		-0.193958
-0.461354		0.186589		-0.198022
-0.461769		0.0858452		-0.202414
1.49219		1.47078		-1.35322
1.58584		1.44187		-1.40616
1.67206		1.39524		-1.45576
1.74753		1.33269		-1.50012
1.80934		1.25662		-1.53754
1.85512		1.16995		-1.56657
1.88312		1.07601		-1.5861
1.43698		1.47486		-1.45322
1.53064		1.44595		-1.50616
1.61686		1.39932		-1.55576
1.69232		1.33677		-1.60012
1.75413		1.2607		-1.63754
1.79992		1.17403		-1.66657
1.82791		1.08009		-1.6861
1.38178		1.47893		-1.55322
1.47544		1.45002		-1.60616
1.56165		1.4034		-1.65576
1.63712		1.34084		-1.70012
1.69893		1.26477		-1.73754
1.74471		1.1781		-1.76657
1.77271		1.08417		-1.7861
1.32657		1.48301		-1.65322
1.42023		1.4541		-1.70616
1.50645		1.40747		-1.75576
1.58191		1.34492		-1.80012
1.64372		1.26885		-1.83754
1.68951		1.18218		-1.86657
1.7175		1.08824		-1.8861
0.944075		1.49449		-1.44164
0.999279		1.49041		-1.34164
1.05448		1.48633		-1.24164
1.10969		1.48226		-1.14164
1.03907		1.49402		-1.49409
1.09428		1.48995		-1.39409
1.14948		1.48587		-1.29409
1.20469		1.48179		-1.19409
1.13407		1.49356		-1.54653
1.18928		1.48948		-1.44653
1.24448		1.48541		-1.34653
1.29969		1.48133		-1.24653
0.848586		1.39495		-1.39328
0.848098		1.29495		-1.39735
0.847609		1.19495		-1.40143
0.84712		1.09495		-1.40551
0.903791		1.39087		-1.29328
0.903302		1.29087		-1.29735
0.902814		1.19087		-1.30143
0.902325		1.09087		-1.30551
0.958995		1.3868		-1.19328
0.958507		1.2868		-1.19735
0.958018		1.1868		-1.20143
0.95753		1.0868		-1.20551
1.0142		1.38272		-1.09328
1.01371		1.28272		-1.09735
1.01322		1.18272		-1.10143
1.01273		1.08272		-1.10551
0.743294		0.995441		-1.35255
0.639961		0.995932		-1.29551
0.536631		0.996417		-1.23849
0.433309		0.996885		-1.18146
0.330008		0.997321		-1.12446
0.798501		0.991372		-1.25255
0.695168		0.991872		-1.19551
0.591838		0.992366		-1.13849
0.488509		0.992857		-1.08146
0.38519		0.99333		-1.02445
0.853709		0.987305		-1.15254
0.750376		0.98781		-1.09551
0.647045		0.988318		-1.03848
0.543714		0.988827		-0.981459
0.440382		0.989341		-0.924443
0.908915		0.983237		-1.05255
0.805582		0.983751		-0.995511
0.702249		0.984271		-0.938486
0.598911		0.984803		-0.881465
0.495561		0.985359		-0.824455
0.227379		1.09756		-1.06353
0.227982		1.19749		-1.05967
0.22856		1.29745		-1.05585
0.229117		1.39744		-1.05207
0.282465		1.09373		-0.963504
0.283014		1.19369		-0.959643
0.283562		1.29367		-0.955836
0.284103		1.39366		-0.952059
0.337527		1.0899		-0.863495
0.338026		1.18991		-0.859629
0.338553		1.2899		-0.855825
0.339082		1.3899		-0.852049
0.392591		1.08607		-0.763502
0.393049		1.18611		-0.759631
0.393538		1.28613		-0.755822
0.394057		1.38613		-0.752044
1.19982		1.39287		-1.06463
1.40144		1.38954		-1.17603
1.50001		1.38328		-1.2307
1.58054		1.38184		-1.2752
1.76313		1.24134		-1.38206
1.65033		1.34164		-1.31546
1.81284		1.16177		-1.41295
1.85732		1.09518		-1.44039
1.72237		1.31013		-1.35658
1.85714		1.01541		-1.44376
0.360477		1.13398		-0.613417
-0.0864448		0.935356		-0.37535
-0.0868063		0.835204		-0.379051
-0.0871101		0.735082		-0.382898
1.85965		0.724814		-1.45778
1.85907		0.624777		-1.46181
0.356982		1.3463		-0.60292
0.357561		1.23762		-0.607627
-0.0784236		1.24122		-0.368254
-0.0830736		1.13694		-0.369615
-0.08545		1.03578		-0.372143
-0.0881409		0.434695		-0.39511
-0.0865438		0.332693		-0.400525
-0.0834907		0.118267		-0.411941
1.85998		0.823713		-1.45366
1.85855		0.52476		-1.46587
1.8579		0.424501		-1.46987
1.85299		0.218162		-1.47614
1.8518		0.108702		-1.48024
1.85948		0.920778		-1.44916
0.358949		1.02959		-0.616824
1.15468		1.02782		-1.05558
0.883004		0.0670361		-0.94744
0.580183		0.0685077		-0.780255
1.18585		0.0655063		-1.11463
0.479256		0.0689906		-0.724522
0.277524		0.0698269		-0.613107
0.0776949		0.0705664		-0.502756
0.378351		0.0694375		-0.668796
0.681117		0.0680354		-0.835982
0.782058		0.0675513		-0.89171
0.983954		0.0665371		-1.00317
1.0849		0.0660268		-1.0589
1.38776		0.0644822		-1.22609
1.48876		0.0638748		-1.28185
1.6904		0.0624447		-1.39319
0.177292		0.0701369		-0.557743
1.28681		0.0649989		-1.17036
1.59008		0.0632021		-1.33779
0.705268		0.891223		-0.813552
0.0015962		1.40373		-0.405818
0.0901156		1.39464		-0.454561
0.19233		1.39374		-0.510592
0.599227		0.893975		-0.754949
0.808732		0.890703		-0.870653
0.91695		0.889565		-0.930409
0.490481		0.897689		-0.694837
1.03792		0.884892		-0.997361
1.7664		1.07079		-1.39128
1.71431		1.16349		-1.35851
1.56477		1.28954		-1.27051
1.45171		1.29957		-1.20768
1.7702		0.96757		-1.39786
1.30209		1.39289		-1.12106
-0.0874461		0.634968		-0.386876
-0.0771386		1.35068		-0.364867
-0.0832232		0.227679		-0.407158
1.85643		0.323158		-1.47346
0.270202		1.19047		-0.561477
1.77267		0.675306		-1.41193
0.00179297		0.885072		-0.425892
-0.087766		0.534861		-0.390947
1.17537		1.22913		-1.05825
1.15802		1.12494		-1.0532
0.00294164		0.383319		-0.447665
1.7715		0.475005		-1.42
1.7731		0.774243		-1.40787
0.00304982		0.785271		-0.430601
1.77205		0.575181		-1.41594
0.0107271		1.18433		-0.419187
0.00158101		0.984309		-0.421881
0.00397702		1.08258		-0.41941
1.77246		0.871079		-1.40331
0.267074		1.09093		-0.563744
1.14756		0.929081		-1.05594
0.368476		0.910428		-0.627016
1.43898		0.152124		-1.25054
1.13583		0.153306		-1.0832
0.631068		0.155921		-0.804523
0.832967		0.154932		-0.915994
0.933924		0.154413		-0.971732
0.530124		0.156379		-0.748783
1.77562		0.0557137		-1.4405
0.429185		0.156795		-0.693041
0.328283		0.157153		-0.637312
0.732015		0.15546		-0.860257
0.227045		0.157299		-0.581396
0.126234		0.157337		-0.525721
1.03488		0.153876		-1.02747
1.23678		0.152756		-1.13893
1.6436		0.153958		-1.36338
1.33778		0.15228		-1.19469
1.54172		0.15546		-1.30709
0.861713		0.801145		-0.903762
0.0282774		1.2995		-0.424389
0.144562		1.3056		-0.487889
0.756811		0.801792		-0.845849
0.650992		0.803714		-0.787378
0.543316		0.806221		-0.727865
0.966754		0.797976		-0.961861
1.6808		1.01283		-1.34656
1.75316		0.157704		-1.42368
1.68413		0.91861		-1.35249
1.34872		1.30705		-1.15052
0.183799		1.15229		-0.515479
1.24073		1.15853		-1.09738
1.77062		0.374057		-1.4239
-0.000767736		0.584293		-0.436875
0.095581		0.838583		-0.479479
1.68555		0.625758		-1.36601
0.0947085		1.12088		-0.467728
1.68441		0.525113		-1.36976
0.0876208		0.936033		-0.471134
0.0864802		1.02679		-0.4669
1.68608		0.725049		-1.36198
-0.000624875		0.484567		-0.441261
1.76796		0.271546		-1.42689
0.00167115		0.684897		-0.433978
0.00692363		0.279441		-0.454464
1.24367		1.07547		-1.10262
1.68574		0.822386		-1.35757
0.256348		1.3006		-0.549464
0.0174058		0.164723		-0.465323
0.580986		0.243907		-0.773033
0.782933		0.242978		-0.88454
0.681958		0.24349		-0.828786
1.28767		0.24		-1.16322
0.883911		0.242442		-0.940293
1.18677		0.240617		-1.10751
0.479973		0.244266		-0.717253
0.984884		0.241861		-0.996042
1.08584		0.241252		-1.05178
1.38845		0.240002		-1.21883
1.59595		0.257288		-1.33259
0.378817		0.24447		-0.661393
1.48759		0.242384		-1.27344
0.275906		0.244077		-0.604576
0.173569		0.242565		-0.548117
0.253906		0.977784		-0.561083
1.24144		0.977266		-1.10565
0.433216		0.807565		-0.667061
0.703838		0.712644		-0.820466
0.809028		0.711707		-0.87856
0.109162		1.21567		-0.471961
0.914687		0.709076		-0.936983
0.599256		0.712437		-0.762758
1.24512		1.31133		-1.09317
1.59636		0.967672		-1.30193
1.39332		1.22083		-1.17888
1.67203		1.09509		-1.33815
1.59838		0.871252		-1.30723
1.33729		1.13302		-1.15178
0.0902209		0.633544		-0.48505
0.0874127		0.534192		-0.487755
1.68436		0.321798		-1.37857
1.59578		0.576894		-1.31859
0.156819		0.980004		-0.507511
0.177769		0.899732		-0.52231
1.6838		0.423348		-1.37385
1.5974		0.676373		-1.31516
0.0906519		0.43633		-0.493797
0.107702		0.329545		-0.507903
0.278946		1.40141		-0.557833
0.192816		1.23293		-0.517245
0.0959587		0.735396		-0.483923
1.59859		0.774179		-1.31157
0.0863476		0.234723		-0.50029
1.68901		0.232459		-1.38502
1.52344		0.323338		-1.2897
1.13685		0.328623		-1.07613
1.23771		0.327909		-1.13182
0.729819		0.333355		-0.851283
0.629521		0.332405		-0.795961
1.0359		0.329343		-1.02039
0.830516		0.333681		-0.906846
0.933299		0.331583		-0.963665
1.43794		0.328041		-1.24231
0.221234		0.329239		-0.570641
0.325884		0.332719		-0.628294
0.529717		0.331885		-0.740888
0.429107		0.332031		-0.685331
1.33855		0.327736		-1.18748
1.15173		1.31813		-1.04134
0.265113		0.875741		-0.571465
1.33356		1.02603		-1.15437
1.23824		0.877099		-1.10824
0.494577		0.711659		-0.705011
1.02063		0.705175		-0.995618
0.76081		0.617391		-0.856033
0.866529		0.615401		-0.914468
0.658694		0.615721		-0.799741
-0.00793583		0.0641335		-0.455829
1.5095		0.922166		-1.25597
1.60402		1.16809		-1.29744
1.29009		1.22665		-1.12166
1.51037		0.824244		-1.26071
0.203298		0.790603		-0.540881
0.183156		0.678089		-0.534496
0.174817		0.581834		-0.534001
0.176141		0.486378		-0.538858
0.173043		0.401751		-0.540841
1.59428		0.47456		-1.32222
1.50811		0.632114		-1.26781
1.51194		0.728679		-1.26573
1.42512		1.06927		-1.20301
1.33128		0.92589		-1.15746
1.18717		0.416964		-1.10005
1.08503		0.419354		-1.04358
0.981264		0.422945		-0.986158
1.49632		0.41929		-1.27056
1.28879		0.415764		-1.15619
0.674078		0.425046		-0.816517
0.774537		0.426506		-0.871905
0.267531		0.429686		-0.591823
0.574287		0.424284		-0.761462
0.877108		0.426008		-0.92854
1.38784		0.414181		-1.21092
0.376294		0.421594		-0.652255
0.47401		0.424095		-0.706105
1.14169		0.827985		-1.05709
0.972639		0.611909		-0.973182
1.0604		0.786007		-1.01405
0.556251		0.615476		-0.743202
0.819933		0.52055		-0.89287
0.717701		0.520403		-0.836448
0.388101		0.706848		-0.646443
1.42121		0.874612		-1.20932
1.51073		1.01792		-1.25249
1.66982		1.25237		-1.33009
1.42409		0.774335		-1.21526
0.248917		0.620619		-0.573278
0.25744		0.536574		-0.581599
0.323501		0.799193		-0.606875
1.59636		0.369937		-1.32791
1.50413		0.531091		-1.27001
1.4219		0.972647		-1.20544
1.43686		0.686103		-1.22615
1.13438		0.510768		-1.06684
1.2376		0.507234		-1.12396
1.02955		0.515412		-1.00878
1.33888		0.502889		-1.18004
1.42642		0.491886		-1.22883
0.924504		0.518703		-0.950666
0.615874		0.52007		-0.780253
0.415726		0.513747		-0.670021
0.51479		0.519		-0.724493
1.23631		0.771024		-1.11178
1.33106		0.821061		-1.16189
1.13724		0.711144		-1.05971
1.08014		0.609219		-1.03262
0.451975		0.611249		-0.685816
0.281572		0.699339		-0.587947
1.59677		1.06231		-1.29804
1.33687		0.702696		-1.17024
1.18569		0.602122		-1.09119
1.29001		0.597471		-1.14896
1.4059		0.592036		-1.21315
0.339791		0.598364		-0.624426
0.331354		0.499991		-0.62402
1.51136		1.1121		-1.24874
1.23723		0.676891		-1.11638
1.49335		1.20653		-1.2347
0.1738		1.05811		-0.513726
1.43209		1.14835		-1.20343
1.72223		0.0906553		-1.93209
1.72272		0.190655		-1.92801
1.72321		0.290655		-1.92393
1.7237		0.390655		-1.91985
1.72419		0.490654		-1.91577
1.72468		0.590654		-1.91169
1.72517		0.690654		-1.90761
1.72565		0.790653		-1.90354
1.72614		0.890653		-1.89946
1.77744		0.0865758		-1.83209
1.77793		0.186576		-1.82801
1.77842		0.286576		-1.82393
1.7789		0.386576		-1.81985
1.77939		0.486576		-1.81577
1.77988		0.586576		-1.81169
1.78037		0.686576		-1.80761
1.78086		0.786576		-1.80354
1.78135		0.886575		-1.79946
1.83264		0.0824963		-1.73209
1.83313		0.182496		-1.72801
1.83362		0.282496		-1.72393
1.83411		0.382497		-1.71985
1.8346		0.482497		-1.71577
1.83509		0.582497		-1.71169
1.83558		0.682498		-1.70761
1.83606		0.782498		-1.70354
1.83655		0.882498		-1.69946
1.88785		0.0784168		-1.63209
1.88834		0.178417		-1.62801
1.88883		0.278417		-1.62393
1.88931		0.378418		-1.61985
1.8898		0.478418		-1.61577
1.89029		0.578419		-1.61169
1.89078		0.678419		-1.60761
1.89127		0.77842		-1.60354
1.89176		0.878421		-1.59946
1.58128		1.11694		-1.94032
1.44213		1.33563		-1.85403
1.53596		1.18504		-1.91235
1.21519		1.40048		-1.72598
1.38651		1.37375		-1.82168
0.875456		1.04404		-1.55399
1.58334		0.940893		-1.94911
1.11691		0.0841556		-1.72898
1.01696		0.0846592		-1.6738
-0.18343		0.0905701		-1.01129
1.31738		0.0851025		-1.83956
1.21704		0.084503		-1.78422
0.870099		1.3321		-1.53852
0.877036		1.24754		-1.54602
0.877753		1.14766		-1.55076
1.12055		1.40678		-1.67348
1.02331		1.40634		-1.61984
1.30992		1.38424		-1.77896
1.48282		1.26688		-1.87948
1.58104		1.03659		-1.94368
1.58367		0.843424		-1.95353
1.58345		0.744673		-1.95771
1.58303		0.645065		-1.9618
1.58254		0.545048		-1.96588
1.58196		0.444695		-1.96992
1.58066		0.343611		-1.9736
1.57728		0.239368		-1.97627
1.57631		0.130179		-1.98049
0.916968		0.0851734		-1.6186
0.745657		0.915621		-1.48794
0.816968		0.0856831		-1.5634
0.63837		0.91239		-1.42888
0.716965		0.0861938		-1.5082
0.533501		0.911678		-1.37105
0.616959		0.0867058		-1.45299
0.428414		0.911598		-1.31307
0.51695		0.0872093		-1.39779
0.321262		0.91077		-1.25397
0.416937		0.0877055		-1.34259
0.201263		0.906416		-1.18794
0.316918		0.0881961		-1.28739
0.216894		0.0886791		-1.23219
0.116859		0.0891614		-1.17699
0.0168027		0.0896471		-1.12179
-0.0832823		0.0901269		-1.06656
-0.283643		0.0909694		-0.955922
-0.3839		0.0912973		-0.900395
-0.484223		0.0915207		-0.844583
-0.584475		0.0915603		-0.788504
-0.6846		0.0914707		-0.732151
-0.784506		0.091233		-0.675556
-0.884112		0.0908668		-0.618821
-0.983349		0.0904073		-0.562131
-1.08209		0.0899106		-0.50579
-1.17993		0.0891468		-0.450029
-1.27748		0.0886424		-0.395289
-1.37418		0.0881185		-0.341659
-1.47081		0.0877512		-0.289528
-1.56639		0.0876342		-0.238715
-1.66173		0.0873906		-0.190241
-1.75641		0.087429		-0.144176
-1.85111		0.0875029		-0.100689
-1.94669		0.0887429		-0.0601003
-2.04453		0.0920619		-0.0212787
-2.14132		0.0916387		0.015037
-2.19801		0.856585		0.0404486
-2.19907		0.756162		0.0400246
-2.19996		0.655724		0.0394451
-2.20075		0.555121		0.0391057
-2.2004		0.454122		0.0384458
-2.19897		0.353097		0.0375369
-2.19626		0.253231		0.0361931
-0.176076		1.41684		-0.958978
-0.275724		1.41686		-0.904227
-0.375602		1.41708		-0.849308
-0.475446		1.4175		-0.794304
-0.575113		1.41799		-0.739283
-0.674691		1.41851		-0.684253
-0.773983		1.41909		-0.629363
-0.87284		1.41972		-0.57472
-0.971158		1.4204		-0.520565
-1.06935		1.42099		-0.466959
-1.16696		1.42152		-0.414261
-1.26435		1.422		-0.362555
-1.36129		1.42252		-0.312092
-1.45772		1.42282		-0.263005
-1.55346		1.42294		-0.2156
-1.64896		1.42293		-0.170063
-1.74432		1.42301		-0.126609
-1.8404		1.42242		-0.086232
-1.93776		1.42085		-0.0469334
-2.03919		1.41761		-0.00935824
-2.14579		1.4175		0.0289088
0.0847081		1.05324		-1.1174
0.0825946		1.15518		-1.11193
0.0807346		1.25988		-1.10653
0.082013		1.36833		-1.10278
1.49182		1.0914		-1.89207
1.36748		1.27957		-1.81528
1.4373		1.1826		-1.85802
1.25634		1.30622		-1.75279
1.16281		1.31731		-1.70069
1.49545		0.987335		-1.89859
0.920879		1.40702		-1.56329
1.0702		1.3201		-1.64946
-2.19706		0.956946		0.0409154
-2.23187		0.0952408		0.0493543
-0.0774051		1.41648		-1.01321
1.41654		0.0848536		-1.89429
1.49653		0.695155		-1.91189
0.767412		0.17284		-1.53226
-1.79346		1.335		-0.108098
-1.61374		0.175064		-0.214441
-0.233129		0.177491		-0.979988
0.964089		1.19956		-1.59615
0.667403		0.173382		-1.47705
0.167286		0.17578		-1.201
0.0672413		0.176238		-1.14579
-1.89904		0.174987		-0.0799942
-1.41001		1.33529		-0.290554
-2.20019		1.34232		0.0471446
1.49479		0.393176		-1.92406
1.49239		0.291454		-1.92716
-0.333384		0.177832		-0.924558
-0.533968		0.178182		-0.813083
-0.425963		1.33056		-0.824895
-0.724857		1.33202		-0.659751
-0.823943		1.33256		-0.605054
-1.02096		1.33364		-0.496798
-1.11881		1.33411		-0.443731
-2.11357		0.705579		0.00808765
-2.11459		0.605159		0.00751669
-2.10805		0.300405		0.00316248
-0.325792		1.33059		-0.880067
-0.73417		0.178027		-0.700701
-0.833914		0.177746		-0.644295
-1.03207		0.177029		-0.531672
-1.13046		0.176562		-0.476091
-1.22807		0.176005		-0.42133
-1.32541		0.175694		-0.367441
-0.225602		1.3313		-0.935151
0.867416		0.172312		-1.58746
-1.51807		0.175107		-0.263672
-1.99013		1.3316		-0.0292702
-2.19471		1.15793		0.042454
-2.19562		1.05745		0.0412272
0.965813		1.30808		-1.59238
1.49606		0.59528		-1.91597
1.06722		0.171163		-1.69777
1.49559		0.49442		-1.9201
1.49679		0.793531		-1.90776
1.1669		0.171795		-1.75275
1.26781		0.175281		-1.80829
0.967384		0.171761		-1.64265
0.567387		0.173901		-1.42184
0.467365		0.174395		-1.36663
0.36734		0.174876		-1.31142
0.267313		0.175352		-1.25621
-0.13294		0.17712		-1.03533
-0.0328258		0.176699		-1.09058
-0.525808		1.33102		-0.769837
-0.625473		1.33151		-0.714774
-0.922649		1.3331		-0.550692
-1.21625		1.33462		-0.391416
-1.70877		0.174969		-0.167043
-2.11268		0.805888		0.00845453
-2.11357		0.504388		0.00646066
-1.50613		1.33539		-0.242137
-1.8038		0.174846		-0.122052
-1.99488		0.177097		-0.0407608
-2.1095		0.402427		0.00426337
-2.10077		0.191045		0.000188254
-0.433687		0.178078		-0.868937
-0.634166		0.178164		-0.756996
-0.933286		0.177419		-0.58791
-1.31338		1.33498		-0.340324
-1.42207		0.175349		-0.314885
-1.6018		1.33544		-0.195591
-1.69753		1.33544		-0.150625
-1.89136		1.33413		-0.0678594
-2.19372		1.2574		0.0435221
-0.00990055		1.20974		-1.05874
0.00713125		1.4224		-1.05942
1.49664		0.890631		-1.90345
0.966848		1.09659		-1.60214
-0.00805528		1.10564		-1.06407
0.0923836		0.95213		-1.12593
0.862771		0.928633		-1.55201
0.37426		0.8203		-1.28712
0.586645		0.822436		-1.40424
0.480429		0.821337		-1.34567
0.268985		0.817191		-1.22915
0.694324		0.82317		-1.46363
1.40866		1.03005		-1.84884
1.20199		1.23252		-1.726
-2.10036		1.31813		0.0109569
1.11453		1.2394		-1.67743
-0.0187999		1.3232		-1.0492
1.40997		0.937109		-1.8536
-0.109158		1.15943		-1.00615
1.06328		1.15435		-1.65285
-2.11149		0.906159		0.00920419
-0.282864		0.264405		-0.948669
-1.45909		1.24802		-0.268858
-1.94892		0.260578		-0.0590209
-1.74739		1.24771		-0.130902
-2.0282		0.755517		-0.0231952
-1.56548		0.262516		-0.238388
-1.8454		1.24746		-0.0883721
-1.36254		1.24787		-0.318176
-1.27583		0.263038		-0.392919
-1.9437		1.24779		-0.0487762
1.01767		0.258414		-1.66663
-1.75684		0.262259		-0.14378
-2.02929		0.655217		-0.0240386
-2.02628		0.455798		-0.0270968
-1.66102		0.262411		-0.190214
-1.46928		0.262606		-0.288311
-2.10571		1.10731		0.00958343
-2.02897		0.555242		-0.0253254
-1.85315		0.261681		-0.0997759
-2.10497		1.20895		0.0106697
-1.37295		0.2628		-0.339945
-1.26552		1.24764		-0.368699
-2.01078		0.348771		-0.0336015
-1.55503		1.24805		-0.221193
-1.65092		1.248		-0.175264
-1.16832		1.24723		-0.420379
-1.1784		0.263443		-0.446873
-1.07051		1.2468		-0.473215
-1.08031		0.263759		-0.501885
-0.97237		1.24645		-0.526682
-0.981851		0.264138		-0.557328
-0.87379		1.24598		-0.580882
-0.774895		1.2455		-0.635347
-0.882713		0.264404		-0.613373
-0.675696		1.24504		-0.690207
-0.783264		0.264623		-0.669413
0.416431		0.262355		-1.33468
-0.576101		1.24456		-0.745322
0.516128		0.262389		-1.38969
-0.182652		0.264118		-1.00404
-0.683481		0.264798		-0.725567
1.40948		0.64544		-1.86601
0.616542		0.26176		-1.44513
-0.47609		1.24407		-0.800571
0.017583		0.263374		-1.11457
-0.0825093		0.263778		-1.05933
1.40899		0.340479		-1.87901
0.117637		0.262974		-1.16979
0.717251		0.260711		-1.50075
-0.383111		0.264657		-0.893158
1.11673		0.258561		-1.72129
0.316841		0.262398		-1.27973
0.917851		0.259022		-1.61152
1.40861		0.442193		-1.87437
-0.37526		1.24394		-0.856192
-0.583459		0.264857		-0.781595
0.21745		0.262581		-1.22488
1.40989		0.744276		-1.86194
1.40878		0.544263		-1.87003
0.817697		0.259794		-1.55622
-0.483342		0.264818		-0.837445
1.21466		0.261104		-1.77522
-2.10935		1.00622		0.0096045
-0.273901		1.24491		-0.911995
1.36925		0.175463		-1.86425
1.47812		0.178756		-1.92419
-0.126599		1.33158		-0.989581
1.41007		0.841518		-1.85781
-0.0019726		1.00231		-1.07176
0.964195		0.990535		-1.60529
0.804444		0.826516		-1.52425
0.426179		0.72468		-1.31992
0.535374		0.727912		-1.38004
0.644023		0.728231		-1.43999
0.317867		0.72332		-1.26019
1.15457		1.17109		-1.7025
1.32409		0.984153		-1.80417
1.28241		1.22489		-1.77071
1.32321		0.889695		-1.80779
-0.321587		1.15484		-0.889276
0.968101		0.345478		-1.63549
-0.632852		0.351439		-0.750197
0.167972		0.351291		-1.19369
-0.5329		0.351477		-0.806003
0.867648		0.347055		-1.57999
-0.424939		1.1561		-0.832201
1.31984		0.491622		-1.82323
1.32214		0.387651		-1.82903
-0.132247		0.35086		-1.02802
-0.232404		0.351111		-0.972691
-0.526203		1.1573		-0.776224
-0.732652		0.351352		-0.694288
-0.62629		1.15802		-0.720797
-0.832145		0.35122		-0.638437
0.0676838		0.35125		-1.13835
-0.725795		1.15852		-0.665707
-0.931359		0.351015		-0.582645
-0.824888		1.15897		-0.610971
-1.03007		0.350747		-0.5272
-0.923596		1.15935		-0.556614
-1.02196		1.15974		-0.50271
-2.03235		0.25561		-0.0256723
-2.02917		1.25328		-0.016434
-2.02688		0.855429		-0.022784
-1.1283		0.350477		-0.472213
-1.12001		1.16007		-0.449471
1.32096		0.276164		-1.83322
-1.22609		0.350209		-0.418053
-1.2175		1.1604		-0.397163
-1.3232		0.350012		-0.364914
-1.31467		1.16059		-0.345912
-1.41128		1.1607		-0.295969
-1.41994		0.349768		-0.312861
-1.50777		1.1608		-0.247259
-1.51612		0.349816		-0.262287
-1.61243		0.34971		-0.213232
-1.60333		1.1608		-0.200199
-1.70892		0.34945		-0.165811
-1.69986		1.16038		-0.154727
-1.80618		0.350343		-0.120098
-1.79839		1.15865		-0.110621
-1.9048		0.348016		-0.0769725
-1.89886		1.16077		-0.0686405
-1.94923		0.42094		-0.0577209
-1.94559		0.506087		-0.0585211
-2.00652		1.16001		-0.0260576
-1.94522		0.604814		-0.0575957
-1.94385		0.705197		-0.057037
-0.0323518		0.350891		-1.08316
-2.02195		1.05337		-0.022138
-2.02481		0.954749		-0.022406
0.462596		0.351533		-1.35626
0.562686		0.352164		-1.41147
0.267121		0.350993		-1.24842
0.664344		0.351183		-1.46761
0.765982		0.349489		-1.52378
-0.432777		0.351446		-0.861709
-0.332587		0.351313		-0.91726
1.06745		0.344402		-1.69036
1.16516		0.344829		-1.74426
0.364699		0.35059		-1.30228
1.32094		0.594411		-1.81937
1.32171		0.694549		-1.81545
1.41394		0.252463		-1.88557
-0.173735		1.2469		-0.967064
1.32247		0.792989		-1.81158
-0.0919631		1.05113		-1.0201
-0.0876347		1.25417		-1.01415
1.05811		1.04351		-1.65481
0.00256814		0.897667		-1.07869
0.967898		0.887353		-1.61181
1.50081		0.0769452		-1.94114
0.217562		0.728871		-1.20459
0.755166		0.727808		-1.50135
0.485895		0.628272		-1.35706
0.594897		0.631942		-1.41706
0.367729		0.611771		-1.29256
1.23589		0.938793		-1.75747
1.34319		1.16832		-1.8067
1.32648		1.07751		-1.80143
1.23487		0.842088		-1.76111
-0.374021		1.06378		-0.863967
-0.476902		1.06808		-0.806917
0.917208		0.434048		-1.60355
-0.582287		0.438148		-0.774629
1.22332		0.434251		-1.77247
-0.682047		0.438083		-0.718924
0.117623		0.444413		-1.16182
0.22019		0.44464		-1.21842
1.24925		0.3408		-1.79084
-0.781601		0.438004		-0.663183
-0.482357		0.43815		-0.830296
-0.577276		1.07034		-0.751297
-0.0830774		0.438139		-1.05132
-0.676817		1.07141		-0.69611
-0.776016		1.07197		-0.641179
0.814521		0.438631		-1.54668
-0.880856		0.437903		-0.607615
0.0161827		0.440546		-1.10601
-0.979742		0.43776		-0.552271
-0.874878		1.07239		-0.586672
-1.07821		0.437544		-0.497342
-0.97354		1.07271		-0.53236
-1.07174		1.07302		-0.478726
-1.17626		0.437341		-0.443064
-1.94237		0.805366		-0.0563313
-1.16957		1.07328		-0.425908
-1.2738		0.437184		-0.3897
-1.26698		1.07347		-0.374041
-1.37097		0.437036		-0.33719
-1.364		1.07361		-0.323179
-1.46067		1.07373		-0.273577
-1.94391		1.08774		-0.0516714
-1.4676		0.437061		-0.286214
-1.56478		0.437241		-0.236106
-1.66172		0.436696		-0.187667
-1.55669		1.07372		-0.225638
-1.74794		1.07333		-0.135087
-1.85229		1.06193		-0.0895752
-1.65228		1.07409		-0.179381
-1.75742		0.435872		-0.141799
-1.86051		0.446386		-0.095071
-1.86339		0.552932		-0.0927347
-1.85779		0.654437		-0.0938585
-1.93961		1.00266		-0.0545828
-1.94083		0.904565		-0.0556123
1.23072		0.543353		-1.7718
1.03558		1.2443		-1.63365
0.607885		0.443996		-1.43241
-0.382284		0.438118		-0.885853
-0.182776		0.43784		-0.996264
0.317653		0.437873		-1.27251
0.505996		0.44241		-1.37625
-0.282487		0.437954		-0.94113
1.01806		0.430232		-1.65937
0.711064		0.442347		-1.48943
0.410052		0.437182		-1.32353
1.11655		0.427711		-1.71383
1.23089		0.644643		-1.76749
-0.218581		1.15833		-0.945917
1.23362		0.744347		-1.76467
-0.170626		1.08546		-0.975329
-0.0880168		0.95032		-1.02647
0.0991208		0.847205		-1.13412
1.05691		0.940806		-1.65861
0.254234		0.63383		-1.22896
0.180251		0.806891		-1.18062
0.703033		0.631021		-1.47678
0.549082		0.535669		-1.39597
0.447074		0.527636		-1.34002
-0.261513		1.05555		-0.926404
1.14647		0.891274		-1.71019
1.23785		1.0365		-1.75431
1.40149		1.10997		-1.84141
1.14653		0.793761		-1.71446
-0.431813		0.974808		-0.835551
-0.532027		0.979745		-0.779873
-0.630267		0.525453		-0.744058
-0.53064		0.525502		-0.799551
-0.729102		0.52575		-0.688871
0.864969		0.527603		-1.57065
-0.631276		0.982119		-0.724763
0.0610108		0.53438		-1.12664
0.171013		0.553491		-1.18653
-0.431035		0.525301		-0.85497
-0.0374732		0.526938		-1.07259
1.15443		0.501892		-1.73151
-0.827995		0.525972		-0.63361
-0.730151		0.983279		-0.669969
-0.828971		0.983904		-0.61525
-0.926771		0.525946		-0.578459
0.282417		0.532022		-1.24895
-1.02536		0.525912		-0.523562
-0.927575		0.984307		-0.560787
-1.12352		0.525763		-0.469239
-1.02599		0.984497		-0.506754
-1.1239		0.98475		-0.453498
-1.22126		0.525648		-0.415696
-1.22149		0.98492		-0.401048
-1.8581		0.756281		-0.0920124
-1.31905		0.525988		-0.3627
-1.31843		0.985689		-0.349674
-1.41392		0.986866		-0.299972
-1.50837		0.986522		-0.25193
-1.41733		0.526553		-0.310407
-1.61509		0.526907		-0.209065
-1.51622		0.526793		-0.259036
-1.71271		0.522036		-0.161731
-1.60406		0.985871		-0.204571
-1.78358		0.995805		-0.120649
-1.70061		0.987725		-0.158634
-1.7764		0.596268		-0.130683
-1.85814		0.854649		-0.0906406
0.968943		0.519152		-1.6284
-0.135104		0.524575		-1.01878
-0.331965		0.524652		-0.90992
0.759698		0.534028		-1.51228
0.654277		0.536501		-1.45399
-0.233402		0.524151		-0.964471
1.06905		0.511763		-1.68397
1.13186		0.594444		-1.71503
1.14555		0.697715		-1.71809
-0.172		1.00035		-0.97805
0.00357859		0.781651		-1.0842
1.14763		0.989885		-1.70654
-0.0886252		0.846986		-1.03051
1.05856		0.841092		-1.66386
0.113887		0.734327		-1.14712
0.169862		0.656049		-1.18142
0.813121		0.627339		-1.5377
-1.79411		0.510736		-0.124063
1.24243		1.14275		-1.75221
-0.492175		0.885698		-0.805736
-0.591358		0.889588		-0.750559
-0.575102		0.614604		-0.770975
-0.67298		0.615511		-0.716427
-0.476052		0.613568		-0.826095
-0.689645		0.891587		-0.6959
-0.771069		0.616186		-0.661719
0.00255329		0.614		-1.09089
-0.787923		0.892713		-0.641392
-0.869587		0.616602		-0.606866
0.922327		0.615216		-1.59849
-0.886363		0.893263		-0.586881
-0.96807		0.616687		-0.552076
-0.378108		0.611275		-0.880531
-1.06642		0.616725		-0.497651
-0.984798		0.893575		-0.532611
-1.08301		0.893737		-0.478899
-1.16443		0.616708		-0.443944
-1.18085		0.893905		-0.425905
-1.26298		0.617616		-0.390386
-1.27808		0.896169		-0.373945
-1.36451		0.621412		-0.336034
-1.3711		0.901736		-0.324871
-1.76084		0.710155		-0.136246
-1.85602		0.953406		-0.0898709
-1.45995		0.901842		-0.278957
-1.46767		0.621447		-0.282019
-1.55362		0.89508		-0.23187
-1.56697		0.617312		-0.231382
-1.67258		0.627182		-0.179052
-1.65449		0.894142		-0.182409
-1.76411		0.899725		-0.131321
-1.78909		0.805267		-0.121793
-0.0898041		0.610004		-1.04006
-0.28122		0.609477		-0.934277
-0.18494		0.609027		-0.987545
-0.330336		0.965647		-0.892052
1.07006		0.665016		-1.67785
1.15065		1.08968		-1.70387
-0.175949		0.901368		-0.979985
0.974449		0.787602		-1.61976
-0.0903597		0.760544		-1.03324
0.878831		0.729544		-1.56952
1.06365		0.745766		-1.67081
0.988913		0.690229		-1.63198
-1.70599		0.804017		-0.159999
-0.554288		0.795931		-0.774943
-0.652218		0.798389		-0.720445
-0.614342		0.705891		-0.745295
-0.516025		0.703617		-0.800038
-0.711683		0.707422		-0.691043
-0.749906		0.799929		-0.666065
-0.418418		0.69937		-0.854405
-0.809686		0.708323		-0.636441
-0.0462945		0.691554		-1.06055
-0.848122		0.800731		-0.611616
-0.908025		0.708759		-0.581838
-0.946478		0.801145		-0.557088
-1.00638		0.708919		-0.52741
-1.04473		0.801327		-0.503048
-1.10448		0.708983		-0.473487
-1.14271		0.801374		-0.449556
-1.20293		0.709661		-0.419892
-1.2411		0.803804		-0.396516
-1.30423		0.715193		-0.365396
-1.33769		0.812653		-0.344827
-1.41582		0.731353		-0.306144
-1.4159		0.83144		-0.303502
-1.4951		0.809786		-0.26321
-1.52549		0.710607		-0.25028
-1.60138		0.790211		-0.210493
-0.324129		0.693321		-0.906897
-0.391418		0.877209		-0.861909
-0.231227		0.693024		-0.958319
-0.182853		0.788897		-0.980938
-1.66957		0.724855		-0.178775
-0.357592		0.781528		-0.884616
1.02519		0.599303		-1.65595
-0.279739		0.862433		-0.924277
0.0332746		0.690242		-1.10453
0.897679		0.83193		-1.57547
-0.455006		0.790569		-0.830246
-0.275113		0.763854		-0.931005
-1.60719		0.694007		-0.210054
0.364986		0.509298		-1.29551
-2.19173		0.166975		0.0343506
-0.137581		0.692172		-1.0101
0.091932		0.630419		-1.13952
-0.243908		0.957064		-0.940154
-2.13475		0.0997859		0.460812
-2.13549		0.201153		0.460869
-2.13527		0.302323		0.460782
-2.13484		0.402696		0.460869
-2.13437		0.503214		0.460225
-2.13363		0.603284		0.460862
-2.13281		0.703011		0.461034
-2.13284		0.803071		0.460906
-2.13285		0.903164		0.461447
-2.13275		1.00332		0.462149
-2.13312		1.10343		0.463201
-2.13312		1.20429		0.463598
-2.1321		1.3054		0.464572
-2.13088		1.40676		0.46492
-2.17276		0.101072		0.366661
-2.1727		0.202136		0.366966
-2.17239		0.30287		0.366711
-2.17197		0.403464		0.366279
-2.17138		0.503685		0.366926
-2.17084		0.604041		0.366562
-2.17012		0.704167		0.367006
-2.16971		0.804244		0.367484
-2.16937		0.904383		0.367723
-2.16908		1.00458		0.368183
-2.16874		1.10491		0.368731
-2.16853		1.20538		0.369828
-2.16799		1.30596		0.37071
-2.16712		1.40742		0.371238
-2.21151		0.102138		0.269754
-2.21158		0.202726		0.26979
-2.21138		0.303391		0.269955
-2.21098		0.403962		0.270164
-2.21027		0.504481		0.269845
-2.20957		0.604786		0.269989
-2.20885		0.705107		0.270327
-2.20824		0.805232		0.270789
-2.2077		0.905484		0.271128
-2.20729		1.00574		0.271738
-2.20677		1.10621		0.2721
-2.20626		1.20661		0.273115
-2.20537		1.30742		0.273712
-2.20411		1.408		0.275235
-2.25106		0.102816		0.171085
-2.25111		0.203354		0.171156
-2.25068		0.303961		0.171135
-2.2501		0.404521		0.171391
-2.24934		0.505061		0.171154
-2.24847		0.605469		0.171326
-2.24776		0.705848		0.17163
-2.24708		0.806277		0.172053
-2.24615		0.906668		0.172442
-2.2452		1.00704		0.172992
-2.24445		1.10748		0.173555
-2.24377		1.20802		0.174493
-2.2428		1.30849		0.175448
-2.2417		1.40906		0.176414
0.291928		1.48668		-0.691844
0.237627		1.49044		-0.792215
0.183307		1.4942		-0.892587
0.128981		1.49797		-0.992959
0.189272		1.48725		-0.635436
0.135638		1.491		-0.736166
0.0819806		1.49474		-0.836901
0.0283196		1.49848		-0.937641
0.0866055		1.48786		-0.579085
0.0336569		1.49156		-0.680167
-0.0193352		1.49527		-0.781258
-0.0723291		1.49897		-0.882365
-0.0160655		1.48851		-0.522843
-0.0683308		1.49214		-0.624238
-0.12064		1.4958		-0.725658
-0.172955		1.49943		-0.827107
-0.118795		1.48923		-0.466807
-0.170356		1.49272		-0.568374
-0.221953		1.49631		-0.670052
-0.273564		1.49991		-0.771841
-0.221684		1.48995		-0.410997
-0.272496		1.49327		-0.512549
-0.323293		1.49684		-0.614415
-0.374139		1.50039		-0.716519
-0.318102		1.49041		-0.358368
-0.369701		1.49377		-0.459226
-0.421322		1.49732		-0.560527
-0.473007		1.50087		-0.662051
-0.41455		1.49077		-0.305476
-0.466943		1.49418		-0.405755
-0.519285		1.49779		-0.506472
-0.571751		1.50139		-0.607508
-0.511094		1.49113		-0.252504
-0.564204		1.49461		-0.352253
-0.61717		1.49828		-0.452462
-0.670321		1.50201		-0.552967
-0.607812		1.49137		-0.199426
-0.661523		1.49503		-0.298775
-0.715082		1.49877		-0.398565
-0.768785		1.50256		-0.498564
-0.710151		1.49154		-0.143503
-0.762996		1.4954		-0.24342
-0.815593		1.49932		-0.343444
-0.868443		1.50311		-0.443741
-0.812584		1.49181		-0.0882963
-0.864368		1.49585		-0.18846
-0.915977		1.49983		-0.288813
-0.967692		1.50379		-0.389474
-0.915265		1.49215		-0.0341697
-0.96571		1.49631		-0.134505
-1.01628		1.50036		-0.235077
-1.06678		1.50439		-0.335933
-1.01824		1.4925		0.0189357
-1.0673		1.49659		-0.0814492
-1.11652		1.50081		-0.182239
-1.16564		1.50498		-0.283448
-1.12146		1.49292		0.0707478
-1.16899		1.49717		-0.0298175
-1.21656		1.50129		-0.130774
-1.26419		1.50547		-0.232128
-1.22493		1.49332		0.121318
-1.27077		1.49756		0.0206649
-1.31669		1.50193		-0.0804872
-1.36259		1.50604		-0.182023
-1.32866		1.49378		0.170286
-1.37245		1.49808		0.0694468
-1.41672		1.50222		-0.031766
-1.46072		1.50642		-0.133487
-1.43255		1.49425		0.217594
-1.47434		1.49837		0.116589
-1.51665		1.50261		0.0150133
-1.55856		1.50676		-0.086909
-1.53636		1.4944		0.263164
-1.57612		1.49877		0.161769
-1.6162		1.503		0.059905
-1.65618		1.50702		-0.0423817
-1.64004		1.49518		0.307096
-1.67715		1.49904		0.204611
-1.71546		1.50316		0.102087
-1.75348		1.50712		-0.000523074
-1.74222		1.49609		0.347748
-1.7776		1.50022		0.244078
-1.81425		1.50381		0.141204
-1.85104		1.50742		0.0384842
-1.83793		1.4986		0.379976
-1.87344		1.50164		0.278077
-1.91044		1.50464		0.175986
-1.94726		1.5076		0.0741394
-1.93426		1.50202		0.408356
-1.96979		1.5039		0.309131
-2.00705		1.50596		0.208789
-2.04417		1.5078		0.108206
-2.03076		1.50548		0.436057
-2.0669		1.50631		0.339612
-2.10438		1.50731		0.241566
-2.14207		1.50853		0.142092
-2.03584		0.00031566		0.428218
-2.07383		0.00119955		0.33133
-2.11294		0.0018203		0.232835
-2.15225		0.00231965		0.13337
-1.93929		0.00286349		0.398835
-1.97675		0.00277924		0.299113
-2.01549		0.00230925		0.198511
-2.05428		0.00210166		0.0977118
-1.84312		0.00543253		0.369
-1.88038		0.00406757		0.266409
-1.91889		0.00291202		0.163972
-1.95733		0.00185536		0.0618196
-1.74792		0.0072468		0.335468
-1.78493		0.00484233		0.230463
-1.82308		0.00282587		0.126841
-1.86132		0.00139674		0.0237277
-1.64565		0.00635771		0.290236
-1.68517		0.00492288		0.187843
-1.72435		0.00260223		0.0848722
-1.76435		0.00103694		-0.0180689
-1.54229		0.00525688		0.243037
-1.58389		0.00345693		0.141413
-1.62532		0.00227562		0.0392846
-1.66701		0.000902695		-0.0632795
-1.43808		0.00354776		0.193583
-1.48215		0.00274581		0.092615
-1.52591		0.001362		-0.00883526
-1.56963		0.000441705		-0.111061
-1.33436		0.00218914		0.142731
-1.38028		0.00141905		0.0417543
-1.42597		0.000947097		-0.0595361
-1.47159		0.000409243		-0.161378
-1.23074		0.000670913		0.0900637
-1.27839		0.000501337		-0.0106771
-1.32579		0.000353374		-0.111861
-1.37367		0.000369711		-0.213527
-1.1273		-0.000796729		0.0358649
-1.17675		-0.000333084		-0.0647482
-1.22593		8.36435e-05		-0.165767
-1.27546		0.000567221		-0.267184
-1.02417		-0.00230519		-0.0197237
-1.07509		-0.00137241		-0.120216
-1.12569		-0.000443904		-0.221068
-1.17655		0.000566097		-0.322112
-0.92135		-0.00381096		-0.0764471
-0.97355		-0.00230732		-0.17672
-1.02542		-0.000727481		-0.277251
-1.07763		0.000829959		-0.378178
-0.818879		-0.0053858		-0.134214
-0.872081		-0.00335931		-0.234306
-0.925014		-0.00119385		-0.334514
-0.978222		0.000904753		-0.43505
-0.71671		-0.00703361		-0.192946
-0.770626		-0.00439004		-0.292574
-0.824504		-0.00153958		-0.392298
-0.878632		0.00105441		-0.492466
-0.614339		-0.00858084		-0.252315
-0.66906		-0.00505295		-0.350778
-0.723719		-0.0019869		-0.450121
-0.77868		0.00116432		-0.549915
-0.517401		-0.00962374		-0.307312
-0.571553		-0.00567264		-0.406282
-0.625575		-0.00223362		-0.506099
-0.679863		0.00123271		-0.606404
-0.420809		-0.0103217		-0.361637
-0.47417		-0.00627773		-0.461368
-0.527441		-0.00254989		-0.561784
-0.580892		0.00118886		-0.662619
-0.324448		-0.0109981		-0.415576
-0.376913		-0.00682844		-0.516056
-0.429283		-0.00289946		-0.617072
-0.481812		0.00102507		-0.718481
-0.228063		-0.0115834		-0.468913
-0.279633		-0.00732903		-0.570213
-0.33114		-0.00329959		-0.67197
-0.382682		0.000744783		-0.773968
-0.127288		-0.0119703		-0.524124
-0.178971		-0.00781981		-0.625874
-0.230663		-0.00370731		-0.727767
-0.282372		0.000396294		-0.829743
-0.0266498		-0.0123808		-0.579493
-0.0784348		-0.00826851		-0.681408
-0.130247		-0.00413739		-0.783337
-0.182083		-1.78845e-05		-0.885277
0.0739652		-0.0127997		-0.635019
0.022065		-0.00870099		-0.736911
-0.0298745		-0.00459933		-0.838796
-0.0818291		-0.000478121		-0.940671
0.174623		-0.013258		-0.690611
0.122573		-0.00916758		-0.792414
0.0704916		-0.00506528		-0.894209
0.0184046		-0.000958043		-0.995994
0.275309		-0.0137311		-0.746226
0.223095		-0.0096381		-0.847924
0.17086		-0.00554503		-0.949615
0.118625		-0.0014475		-1.0513
0.37602		-0.0142126		-0.801843
0.323631		-0.010124		-0.903432
0.271233		-0.00604029		-1.00502
0.218836		-0.00194632		-1.10659
0.476748		-0.0147007		-0.85746
0.424182		-0.0106158		-0.958939
0.37161		-0.00653332		-1.06042
0.319041		-0.00244558		-1.16189
0.577489		-0.0151908		-0.913078
0.524742		-0.0111094		-1.01445
0.47199		-0.00702753		-1.11582
0.419242		-0.0029449		-1.21718
0.678237		-0.0156807		-0.968695
0.625306		-0.0116014		-1.06996
0.572371		-0.00752338		-1.17122
0.519439		-0.00344334		-1.27248
0.77899		-0.016172		-1.02431
0.725873		-0.0120946		-1.12547
0.672753		-0.00801778		-1.22663
0.619635		-0.00393889		-1.32778
0.879747		-0.0166637		-1.07993
0.826442		-0.0125875		-1.18098
0.773135		-0.00851101		-1.28204
0.71983		-0.00443413		-1.38309
0.980506		-0.0171552		-1.13555
0.927012		-0.0130794		-1.2365
0.873517		-0.00900375		-1.33745
0.820023		-0.0049279		-1.43839
1.08127		-0.0176468		-1.19118
1.02758		-0.0135714		-1.29202
0.973899		-0.00949609		-1.39286
0.920216		-0.00542053		-1.4937
1.18203		-0.0181387		-1.2468
1.12815		-0.0140629		-1.34753
1.07428		-0.00998773		-1.44827
1.02041		-0.00591222		-1.54901
1.28279		-0.0186304		-1.30242
1.22873		-0.0145546		-1.40305
1.17466		-0.0104791		-1.50368
1.1206		-0.00640336		-1.60431
1.38355		-0.0191223		-1.35805
1.3293		-0.0150462		-1.45857
1.27504		-0.0109702		-1.5591
1.22079		-0.00689417		-1.65962
1.48431		-0.0196142		-1.41367
1.42987		-0.0155376		-1.51409
1.37542		-0.0114611		-1.61451
1.32098		-0.00738457		-1.71493
1.58507		-0.0201063		-1.46929
1.53044		-0.0160291		-1.56961
1.47581		-0.0119519		-1.66992
1.42117		-0.00787478		-1.77024
1.68584		-0.0205985		-1.52492
1.63101		-0.0165206		-1.62513
1.57619		-0.0124427		-1.72534
1.52136		-0.00836482		-1.82555
1.7866		-0.0210908		-1.58054
1.73158		-0.0170121		-1.68065
1.67657		-0.0129335		-1.78075
1.62155		-0.00885476		-1.88086
-1.60546		0.10684		0.390156
-1.49817		0.104971		0.342507
-1.39179		0.10319		0.293304
-1.28584		0.101297		0.242805
-1.1802		0.0996116		0.190438
-1.07504		0.0977321		0.136759
-0.97032		0.0958474		0.0815547
-0.866147		0.0938755		0.0253173
-0.76248		0.0918498		-0.0319495
-0.659412		0.0896598		-0.0901211
-1.60617		0.204652		0.390693
-1.49816		0.20329		0.342601
-1.39142		0.201893		0.293266
-1.28537		0.200174		0.243308
-1.1798		0.19867		0.191005
-1.0747		0.196908		0.13788
-0.969976		0.195192		0.0830438
-0.86594		0.193356		0.0273909
-0.762364		0.191571		-0.0293994
-0.659384		0.189688		-0.0869281
-1.60488		0.302969		0.389986
-1.49796		0.301939		0.342536
-1.39135		0.300586		0.293838
-1.28539		0.299259		0.243845
-1.1797		0.297743		0.19215
-1.07473		0.296289		0.139137
-0.97006		0.294598		0.0848476
-0.865986		0.29299		0.0295275
-0.762259		0.291281		-0.0267576
-0.659307		0.289629		-0.0837763
-1.60514		0.401753		0.390996
-1.49806		0.400744		0.343371
-1.39152		0.399534		0.294621
-1.28511		0.398431		0.244941
-1.17959		0.396998		0.193531
-1.07466		0.395576		0.140807
-0.970087		0.394052		0.0868772
-0.865883		0.392589		0.031975
-0.762208		0.391052		-0.0238445
-0.659152		0.389618		-0.0804484
-1.60469		0.500526		0.391911
-1.49767		0.499811		0.344108
-1.39109		0.498751		0.295598
-1.28549		0.497583		0.246219
-1.17968		0.496306		0.195163
-1.07467		0.494982		0.14269
-0.970089		0.493616		0.0891068
-0.865952		0.492221		0.0345358
-0.76226		0.490837		-0.0209039
-0.659062		0.489531		-0.0771481
-1.60354		0.600233		0.392173
-1.49705		0.59909		0.345038
-1.39097		0.598077		0.296914
-1.28537		0.596897		0.247638
-1.17954		0.595703		0.196829
-1.07473		0.594429		0.14477
-0.970114		0.593261		0.091424
-0.865975		0.591944		0.0372181
-0.762323		0.590664		-0.0178158
-0.658933		0.589431		-0.0737919
-1.60305		0.69958		0.393214
-1.49672		0.698465		0.34609
-1.39106		0.697474		0.298441
-1.28497		0.696315		0.249362
-1.17978		0.695079		0.198784
-1.07477		0.69411		0.146977
-0.970206		0.692819		0.0939543
-0.865941		0.691639		0.0399678
-0.762239		0.690515		-0.0148998
-0.658768		0.689337		-0.0703772
-1.60397		0.799062		0.395246
-1.49681		0.797984		0.34761
-1.39103		0.796901		0.300205
-1.28501		0.795744		0.251071
-1.17976		0.794648		0.200939
-1.07486		0.793525		0.149121
-0.970089		0.792473		0.0965537
-0.865651		0.791405		0.0427894
-0.762022		0.790293		-0.0118752
-0.658509		0.789209		-0.0671575
-1.60339		0.898702		0.395424
-1.49704		0.897449		0.348987
-1.39065		0.896307		0.301808
-1.28507		0.895161		0.252909
-1.17974		0.894145		0.203077
-1.07484		0.893024		0.151698
-0.970109		0.892023		0.0992227
-0.865741		0.891076		0.0455798
-0.761929		0.890125		-0.00881823
-0.658386		0.889134		-0.0638703
-1.60334		0.99818		0.396488
-1.49731		0.996819		0.350674
-1.39098		0.995639		0.303462
-1.2852		0.994531		0.255232
-1.17978		0.993519		0.205519
-1.07456		0.992505		0.154397
-0.969868		0.991574		0.101948
-0.865558		0.990649		0.0484959
-0.761747		0.989856		-0.00567947
-0.658158		0.988966		-0.0606419
-1.60499		1.09701		0.398681
-1.49774		1.09606		0.352552
-1.391		1.09474		0.305734
-1.28517		1.09385		0.257576
-1.17944		1.09284		0.208067
-1.07418		1.09195		0.157101
-0.969626		1.09109		0.104892
-0.865361		1.09028		0.0516548
-0.761294		1.08958		-0.0024914
-0.657852		1.08885		-0.0574199
-1.60361		1.19641		0.399363
-1.49688		1.19485		0.354545
-1.39071		1.19381		0.308247
-1.2849		1.19289		0.260169
-1.17939		1.19202		0.210872
-1.0743		1.19127		0.160036
-0.969451		1.19058		0.108116
-0.865082		1.18986		0.0549294
-0.761128		1.18925		0.000774188
-0.657564		1.18869		-0.0541963
-1.60513		1.29452		0.402419
-1.49714		1.29359		0.357162
-1.39069		1.29272		0.311029
-1.28464		1.29186		0.263192
-1.17908		1.29118		0.214057
-1.07389		1.29051		0.16336
-0.969117		1.28993		0.111432
-0.864681		1.28936		0.0583855
-0.760685		1.28887		0.00420537
-0.657104		1.28849		-0.0508128
-1.6031		1.39301		0.404407
-1.49634		1.39214		0.359864
-1.39022		1.39147		0.314142
-1.28433		1.39079		0.266622
-1.17876		1.39021		0.217545
-1.07349		1.38971		0.166963
-0.968709		1.38921		0.115044
-0.864284		1.38877		0.0619759
-0.760256		1.38843		0.00776148
-0.656617		1.38825		-0.047313
-1.95322		0.0854172		0.776192
-1.94651		0.0793634		0.8634
-1.9428		0.0680385		0.949638
-1.94152		0.0633532		1.03383
-1.94159		0.0651365		1.11704
-1.94232		0.0710733		1.20155
-1.94331		0.080818		1.28871
-1.94502		0.0984136		1.47099
-1.94555		0.100378		1.56347
-1.96406		0.0912732		0.690607
-1.9443		0.0934004		1.3783
-1.97646		1.39756		0.620047
-1.96048		1.40297		0.717426
-1.9507		1.40986		0.81216
-1.9452		1.41751		0.904412
-1.94279		1.4016		1.09043
-1.94358		1.38642		1.20525
-1.94276		1.41927		0.996885
-1.95108		0.765043		1.57085
-1.94995		0.385832		1.43567
-1.95043		1.04587		1.50835
-1.9483		0.289589		1.06403
-1.94892		0.302309		1.22253
-1.95048		0.483176		1.54106
-1.95084		0.965688		1.53667
-1.95104		0.661917		1.56612
-1.94902		1.19615		1.22048
-1.9495		1.16795		1.321
-1.9498		0.345682		1.29512
-1.95809		0.568601		0.693316
-1.95352		0.860486		0.722776
-1.94906		0.322291		0.948962
-1.95035		0.371896		0.883904
-1.9506		1.13698		0.869292
-1.94906		1.18171		0.995842
-1.95526		0.497356		0.738604
-1.95223		1.04464		0.802944
-1.94981		1.13594		1.40533
-1.95575		0.771887		0.690876
-1.95799		0.688591		0.675066
-1.98075		1.19285		0.593839
-1.96892		0.414982		0.646021
-1.97341		0.519303		0.609072
-1.97491		0.610586		0.589834
-1.97249		0.70486		0.594068
-1.96888		0.817488		0.611008
-1.97362		0.926882		0.597856
-1.97963		0.195476		0.608108
-1.97636		0.297569		0.620704
-1.97632		1.01968		0.595273
-1.98057		1.10415		0.586186
-1.94738		0.202024		1.65305
-1.95073		0.992382		1.63619
-1.95093		0.587633		1.6532
-1.95107		0.893351		1.64832
-1.95119		0.787848		1.65461
-1.95115		0.684987		1.65605
-1.94977		0.400182		1.64962
-1.9487		0.301845		1.65107
-1.95023		1.07506		1.6167
-1.94465		1.37395		1.34005
-1.94702		1.29463		1.45514
-1.94846		1.22929		1.53178
-1.94953		1.15177		1.58321
-1.98021		0.0974486		0.604113
-1.9436		0.134402		1.10613
-1.94504		0.157621		1.26568
-1.94806		0.162477		0.872503
-1.94462		0.132175		0.955848
-1.94356		0.128406		1.03126
-1.95437		0.167345		0.781089
-1.94418		0.14376		1.18407
-1.94632		0.192143		1.35643
-1.94576		1.29852		1.07467
-1.94677		1.33412		0.923351
-1.95138		1.31978		0.829959
-1.94633		1.28903		1.21084
-1.94473		1.35429		0.996209
-1.95744		0.358932		0.747712
-1.96438		0.182087		0.69642
-1.96205		0.272574		0.712824
-1.96031		0.955861		0.682704
-1.96875		1.11096		0.651821
-1.9605		1.05596		0.699574
-1.95087		0.567182		1.55373
-1.94708		0.199668		1.55712
-1.95049		0.494447		1.65169
-1.94856		0.29802		1.5511
-1.94822		1.22613		1.41702
-1.94756		0.261138		0.992969
-1.94676		0.226804		1.23681
-1.94738		0.221183		0.931445
-1.95042		0.226575		0.850718
-1.94837		0.285752		1.36963
-1.95115		1.23221		0.852312
-1.94875		1.20241		1.10923
-1.95976		1.31175		0.733295
-1.95766		1.14953		0.748116
-1.95211		0.313362		0.828249
-1.94975		0.395503		1.5443
-1.94968		1.12885		1.49207
-1.94843		0.290874		1.45444
-1.94929		0.270284		0.890214
-1.94584		0.208812		1.08916
-1.94629		0.218366		1.16288
-1.95795		1.23023		0.753618
-1.97471		1.28927		0.628053
-1.95425		0.244378		0.79219
-1.94721		1.2668		1.32397
-1.94755		1.25664		0.961268
-1.94673		0.195288		1.46081
-1.94595		0.100839		1.65597
-1.95285		0.953866		0.756716
-1.9523		0.429658		0.807574
-1.94874		0.298522		1.14337
-1.94993		0.364493		1.35416
-1.96322		0.621096		0.653729
-1.95103		0.868673		1.56126
-1.94859		0.293517		1.29594
-1.95945		0.877862		0.676752
-1.94725		0.239799		1.29424
-1.94883		1.19494		1.48293
-1.96695		1.17036		0.6686
-1.94562		0.195298		1.02212
-1.94584		0.181932		0.968704
-1.96597		1.22716		0.683818
-1.85774		0.0886586		0.764322
-1.85116		0.0825348		0.854941
-1.84755		0.0709762		0.943868
-1.84635		0.0659219		1.03005
-1.84649		0.0673307		1.11471
-1.84726		0.0729384		1.20026
-1.84829		0.082421		1.28813
-1.85003		0.0997144		1.47107
-1.85056		0.101599		1.56367
-1.86839		0.0942917		0.674877
-1.8493		0.0948212		1.37814
-1.88134		1.39475		0.602791
-1.86479		1.39983		0.703351
-1.85514		1.40673		0.80211
-1.84977		1.41453		0.897535
-1.84759		1.39951		1.08778
-1.84849		1.38469		1.20402
-1.84744		1.41665		0.992446
-1.8561		0.765054		1.57086
-1.85499		0.386339		1.43582
-1.85546		1.04544		1.50855
-1.85315		0.290262		1.06192
-1.85388		0.302747		1.22214
-1.85552		0.483665		1.5412
-1.85586		0.965408		1.53678
-1.85607		0.662067		1.56615
-1.85398		1.19573		1.22011
-1.8545		1.16748		1.32105
-1.85477		0.345987		1.29509
-1.86229		0.569616		0.685544
-1.85819		0.859805		0.719469
-1.85373		0.323271		0.945334
-1.85491		0.37302		0.87951
-1.85507		1.13564		0.864268
-1.8538		1.181		0.993284
-1.85938		0.498726		0.731557
-1.85662		1.04332		0.798222
-1.85483		1.13542		1.4055
-1.86012		0.771623		0.686137
-1.86233		0.6888		0.668695
-1.88592		1.19125		0.578068
-1.87375		0.415892		0.632084
-1.87827		0.51995		0.596543
-1.87992		0.610852		0.578804
-1.87729		0.70472		0.584226
-1.8737		0.81693		0.601142
-1.87867		0.926186		0.586222
-1.88458		0.197334		0.591002
-1.88136		0.298696		0.604648
-1.88142		1.01872		0.581961
-1.88564		1.10294		0.571625
-1.85241		0.203111		1.6533
-1.85577		0.991996		1.63638
-1.85599		0.588003		1.65331
-1.85611		0.893139		1.64844
-1.85623		0.787827		1.65468
-1.8562		0.685161		1.65612
-1.85482		0.400945		1.64982
-1.85375		0.302791		1.6513
-1.85526		1.07453		1.61694
-1.84963		1.37249		1.3397
-1.85203		1.29357		1.45523
-1.85348		1.22846		1.53201
-1.85456		1.15111		1.58349
-1.885		0.0999165		0.58585
-1.84851		0.136236		1.10383
-1.85005		0.158979		1.26509
-1.8527		0.164906		0.86475
-1.84938		0.134574		0.95048
-1.8484		0.130536		1.02763
-1.85889		0.16982		0.769824
-1.84915		0.145332		1.18277
-1.85135		0.193315		1.35633
-1.8506		1.29711		1.0722
-1.85136		1.33187		0.917342
-1.85587		1.31747		0.821004
-1.85131		1.2879		1.21
-1.84942		1.35214		0.991973
-1.86163		0.360516		0.737089
-1.86883		0.184253		0.681557
-1.86647		0.274273		0.699383
-1.86448		0.9546		0.673631
-1.87347		1.10972		0.638102
-1.86478		1.05458		0.68876
-1.8559		0.567491		1.55381
-1.85212		0.20078		1.55732
-1.85556		0.495014		1.65185
-1.8536		0.298953		1.55129
-1.85327		1.22524		1.41715
-1.85236		0.262381		0.98933
-1.8518		0.2278		1.23618
-1.85209		0.222988		0.925917
-1.85501		0.228557		0.842618
-1.85345		0.286554		1.36965
-1.85563		1.23047		0.844863
-1.85362		1.20193		1.10797
-1.86418		1.30946		0.720458
-1.86201		1.14799		0.737902
-1.85657		0.314966		0.820417
-1.85481		0.396212		1.54447
-1.85473		1.12821		1.49231
-1.8535		0.291762		1.45457
-1.85392		0.271918		0.883942
-1.85076		0.210141		1.08686
-1.85128		0.219468		1.16157
-1.86243		1.22842		0.742496
-1.87992		1.28715		0.611792
-1.85874		0.246328		0.781965
-1.85224		1.26577		1.3238
-1.85221		1.25509		0.956816
-1.85177		0.196431		1.46092
-1.85096		0.102011		1.65621
-1.85735		0.952737		0.752818
-1.85673		0.431086		0.802047
-1.85365		0.298905		1.14241
-1.85495		0.364862		1.35425
-1.86755		0.621578		0.64473
-1.85605		0.868545		1.5613
-1.85364		0.294145		1.2958
-1.86353		0.876881		0.669274
-1.85229		0.240737		1.29396
-1.85386		1.19415		1.48315
-1.87158		1.16895		0.654595
-1.85045		0.196944		1.01854
-1.85061		0.183887		0.963858
-1.87051		1.22551		0.669875
-1.76345		0.0918784		0.752655
-1.75681		0.0856848		0.846576
-1.75307		0.0738941		0.93812
-1.75174		0.068471		1.02627
-1.75178		0.0695051		1.11237
-1.75247		0.0747856		1.19896
-1.75342		0.0840101		1.28753
-1.75507		0.101011		1.47115
-1.75558		0.102821		1.56385
-1.77387		0.0973171		0.659399
-1.75437		0.0962328		1.37797
-1.78512		1.39206		0.58563
-1.7703		1.39673		0.68968
-1.76066		1.40359		0.792233
-1.75518		1.41153		0.890724
-1.75277		1.39741		1.08513
-1.75357		1.38296		1.2028
-1.75273		1.41403		0.988027
-1.76109		0.765063		1.57088
-1.75996		0.386845		1.43596
-1.76043		1.045		1.50874
-1.75839		0.290929		1.0598
-1.75895		0.303179		1.22174
-1.76049		0.484153		1.54134
-1.76084		0.965127		1.5369
-1.76106		0.662216		1.56618
-1.75901		1.19531		1.21974
-1.75949		1.167		1.3211
-1.75981		0.34629		1.29505
-1.76822		0.570646		0.677972
-1.76363		0.859107		0.716202
-1.75922		0.324242		0.941729
-1.76057		0.374146		0.875183
-1.76074		1.1343		0.859308
-1.75905		1.18029		0.99073
-1.76561		0.500124		0.724734
-1.76249		1.042		0.793636
-1.75981		1.13491		1.40568
-1.76582		0.77134		0.68147
-1.76795		0.688993		0.66239
-1.78902		1.18963		0.562129
-1.77814		0.416798		0.617773
-1.78166		0.520571		0.583109
-1.78278		0.611147		0.566754
-1.78062		0.704616		0.573458
-1.7775		0.816399		0.590591
-1.78197		0.925473		0.573945
-1.7878		0.199199		0.573194
-1.78488		0.299837		0.588017
-1.7847		1.01776		0.568155
-1.78857		1.10176		0.556562
-1.75741		0.204202		1.65355
-1.76075		0.991608		1.63657
-1.76098		0.588372		1.65342
-1.76109		0.892924		1.64856
-1.76123		0.787802		1.65476
-1.76119		0.685332		1.6562
-1.75981		0.401708		1.65002
-1.75874		0.30374		1.65154
-1.76024		1.074		1.61719
-1.75465		1.37102		1.33935
-1.75702		1.29251		1.45532
-1.75847		1.22763		1.53225
-1.75954		1.15045		1.58376
-1.78838		0.102268		0.567031
-1.75376		0.13805		1.10152
-1.75513		0.160322		1.26449
-1.75837		0.167323		0.857074
-1.75487		0.136957		0.94513
-1.75376		0.132648		1.02399
-1.76467		0.172283		0.75875
-1.75431		0.146887		1.18146
-1.75637		0.194478		1.35621
-1.75573		1.29569		1.06974
-1.75678		1.32959		0.911375
-1.76145		1.31512		0.812181
-1.75631		1.28677		1.20915
-1.7547		1.34998		0.987754
-1.76783		0.362056		0.726748
-1.77438		0.186438		0.666984
-1.77224		0.275974		0.686246
-1.77039		0.953359		0.664775
-1.77847		1.10841		0.624714
-1.77078		1.05316		0.67832
-1.76089		0.567799		1.55389
-1.75712		0.201892		1.55752
-1.76054		0.495582		1.65201
-1.75859		0.299885		1.55149
-1.75822		1.22435		1.41729
-1.75772		0.263609		0.985696
-1.75683		0.228781		1.23554
-1.75762		0.22478		0.920415
-1.76075		0.230528		0.834618
-1.7584		0.28735		1.36966
-1.76128		1.22869		0.837514
-1.75873		1.20145		1.10671
-1.76993		1.30716		0.708048
-1.76793		1.14641		0.727951
-1.76246		0.316553		0.812693
-1.75978		0.39692		1.54465
-1.75969		1.12758		1.49254
-1.75846		0.292646		1.4547
-1.75958		0.273538		0.877721
-1.75597		0.211453		1.08454
-1.75638		0.220553		1.16025
-1.76815		1.22659		0.731643
-1.78388		1.28498		0.595742
-1.7646		0.248262		0.771912
-1.7572		1.26474		1.32363
-1.75756		1.25353		0.952379
-1.75677		0.19757		1.46103
-1.75597		0.103187		1.65645
-1.7631		0.95161		0.749067
-1.76258		0.432498		0.796594
-1.75878		0.299281		1.14143
-1.75994		0.365227		1.35434
-1.77276		0.622051		0.635664
-1.76104		0.868415		1.56135
-1.75861		0.294767		1.29565
-1.76942		0.875941		0.661881
-1.7573		0.241664		1.29368
-1.75883		1.19335		1.48337
-1.77698		1.16743		0.641042
-1.75579		0.198574		1.01496
-1.75606		0.185829		0.959024
-1.776		1.22374		0.656375
0.174242		0.793153		0.942784
0.179382		0.486562		0.941465
0.186657		0.298488		0.952325
0.185686		0.117356		0.947359
0.183497		0.392361		0.947802
0.189015		0.88869		0.976653
0.181517		0.683697		0.950153
0.180422		0.583892		0.944966
0.187553		0.205986		0.95245
0.18854		0.986345		0.983486
0.0761817		0.0347469		0.749687
-0.0822451		0.030017		0.466106
-0.24869		0.0609142		0.170546
-0.13332		0.0306999		0.374798
-0.357331		0.0730965		-0.0221419
0.023155		0.0318986		0.654782
-0.18946		0.0584911		0.275878
-0.0295507		0.0296945		0.560398
-0.303674		0.0670047		0.0730542
0.129978		0.0302953		0.8457
-0.352736		1.38565		0.031527
-0.298147		1.38261		0.13001
-0.242529		1.38213		0.230361
-0.189054		1.39241		0.327198
-0.138481		1.39676		0.418789
-0.405695		1.3874		-0.0641894
-0.0854326		1.37567		0.514083
0.134778		0.75655		0.868986
0.131699		0.583404		0.856793
-0.266717		0.341778		0.15138
-0.183919		0.282783		0.29598
-0.269408		1.09196		0.174401
0.0432961		1.09645		0.731103
-0.315851		0.435559		0.0680874
-0.084291		0.24242		0.470589
-0.057482		1.14545		0.554598
-0.147485		0.242642		0.358791
-0.336454		0.514465		0.0348955
-0.341356		0.864388		0.0392217
-0.209265		1.15333		0.283905
0.120112		0.473569		0.834931
0.0469045		0.327568		0.704116
0.13047		0.861137		0.868454
-0.0425593		0.270501		0.545215
0.0819121		0.413569		0.766532
-0.161146		1.15514		0.370187
-0.0184986		1.1228		0.622701
0.0753847		1.02229		0.78287
-0.290106		1.01738		0.135498
-0.358454		0.680203		0.0023799
-0.366716		0.794164		-0.00854208
-0.408862		0.991225		-0.0794741
-0.402072		0.709934		-0.0749388
-0.402727		0.592864		-0.0807235
-0.408877		1.19334		-0.075048
-0.424894		0.789249		-0.113347
-0.410444		0.177035		-0.113617
-0.410247		0.274183		-0.109131
-0.409715		1.09404		-0.0787744
-0.40617		0.875015		-0.0773295
-0.393436		0.479341		-0.0692728
-0.407483		0.372099		-0.0996241
-0.0105027		1.33442		0.64796
0.124204		1.07565		0.874499
0.0918066		1.15406		0.822053
0.0474462		1.23834		0.747616
0.182814		0.028107		0.940172
0.135458		0.374846		0.861731
0.143078		0.199846		0.872897
0.141959		0.28668		0.872328
-0.409733		0.079295		-0.115549
-0.0278378		0.112901		0.566314
0.0231249		0.122999		0.657442
0.135539		0.118883		0.857737
-0.151655		0.130784		0.346417
-0.24868		0.157448		0.174842
-0.205162		0.1288		0.251042
-0.306066		0.159396		0.0727057
-0.0820938		0.118848		0.469849
-0.178957		1.31477		0.343033
-0.141146		1.34013		0.41207
-0.300116		1.28825		0.123922
-0.23608		1.27927		0.239072
-0.10692		1.3018		0.472429
-0.360291		0.260401		-0.0200167
-0.359788		0.349775		-0.014988
-0.359072		0.167218		-0.0217308
-0.362409		1.10204		0.00677126
-0.319855		1.04227		0.0822947
0.10438		0.937415		0.827734
0.00686138		1.1745		0.67105
-0.0532936		1.2385		0.566372
-0.355372		1.29108		0.0241439
0.0579507		0.237875		0.722228
-0.117194		0.187926		0.41014
-0.21055		0.218975		0.245476
0.0151732		0.212347		0.645791
-0.0294103		0.193549		0.566155
-0.266025		0.250317		0.148118
-0.200417		1.2235		0.301667
-0.256375		1.17825		0.199829
-0.105822		1.20589		0.470772
-0.318342		0.946908		0.0828952
-0.355873		0.419925		-0.00457061
-0.311684		0.34508		0.0710622
-0.316556		1.10871		0.0897306
-0.407403		1.29033		-0.0700418
0.107575		0.204325		0.809719
-0.310429		0.251767		0.0689182
0.0902585		0.346834		0.781058
-0.178961		0.178474		0.299866
-0.0649918		0.185803		0.502742
-0.149976		1.24272		0.392828
-0.308294		1.19463		0.106703
0.14439		0.979584		0.903175
0.136665		0.682172		0.868563
0.00452643		0.298911		0.628843
-0.225393		0.321685		0.224172
-0.352343		0.604163		0.0103481
-0.10863		1.14956		0.463746
0.155555		0.907662		0.917554
-0.36887		0.907694		-0.0093202
0.0982766		0.268488		0.794349
-0.124456		0.0923146		0.393269
-0.357664		0.999155		0.0130544
-0.234307		0.262655		0.20526
-0.359259		1.19655		0.0146795
0.0792362		0.141092		0.757881
0.269422		0.793149		0.89037
0.274599		0.486531		0.888935
0.281823		0.298461		0.899702
0.280814		0.117324		0.894722
0.278702		0.392331		0.895216
0.284328		0.888672		0.924226
0.276756		0.68368		0.897747
0.275657		0.583867		0.892509
0.282686		0.205957		0.899811
0.28381		0.986287		0.931015
0.171361		0.0347239		0.696928
0.0129749		0.0299656		0.413293
-0.153372		0.0606928		0.117656
-0.0380709		0.0306098		0.321971
-0.262222		0.072787		-0.0753716
0.118349		0.0318776		0.601997
-0.0941532		0.0583388		0.223027
0.0656523		0.0296661		0.507599
-0.208402		0.0667239		0.0200791
0.225115		0.0302619		0.793003
-0.257719		1.38532		-0.0210282
-0.203069		1.38233		0.0775182
-0.147442		1.38187		0.177857
-0.093999		1.39216		0.274664
-0.0434646		1.39652		0.366225
-0.310698		1.38703		-0.116926
0.0095971		1.37544		0.461488
0.229677		0.756547		0.816526
0.226649		0.583363		0.804271
-0.171497		0.341475		0.0985195
-0.0883859		0.282599		0.243175
-0.174309		1.09169		0.12193
0.13863		1.09633		0.678429
-0.220915		0.435194		0.0151471
0.0113939		0.242362		0.417788
0.0380669		1.14522		0.501975
-0.0518924		0.242516		0.30599
-0.24163		0.514083		-0.0180501
-0.246564		0.864108		-0.0134186
-0.113975		1.15306		0.231421
0.215216		0.473509		0.782287
0.142377		0.327521		0.651321
0.225498		0.861138		0.815947
0.0531464		0.270463		0.492404
0.177165		0.413517		0.713806
-0.0657281		1.15487		0.317668
0.0770246		1.12261		0.570049
0.170636		1.02222		0.730221
-0.195121		1.01711		0.0830011
-0.263703		0.679858		-0.0504608
-0.271911		0.793858		-0.0612673
-0.31389		0.990835		-0.132157
-0.307156		0.709558		-0.127768
-0.307836		0.592478		-0.133743
-0.313963		1.19299		-0.127797
-0.32978		0.788851		-0.166095
-0.315848		0.176542		-0.167444
-0.315629		0.273689		-0.162804
-0.314769		1.09366		-0.131488
-0.311202		0.874633		-0.130027
-0.29866		0.478912		-0.122461
-0.312768		0.371645		-0.153076
0.0845494		1.33423		0.595328
0.219346		1.07556		0.82189
0.186939		1.15394		0.769399
0.142561		1.23818		0.694955
0.277955		0.0280896		0.887565
0.230656		0.374803		0.809056
0.238248		0.199815		0.820197
0.237152		0.286647		0.819634
-0.314972		0.0788558		-0.16937
0.0675167		0.112871		0.513511
0.118447		0.122974		0.604647
0.230699		0.11885		0.80503
-0.056255		0.130664		0.293596
-0.153346		0.157211		0.121971
-0.109797		0.12862		0.198197
-0.210852		0.159094		0.0197265
0.0133053		0.118792		0.41704
-0.0838034		1.3145		0.290505
-0.04603		1.33988		0.359514
-0.205041		1.28797		0.0714336
-0.14092		1.279		0.186582
-0.0117376		1.30155		0.419851
-0.265406		0.259988		-0.0732451
-0.264927		0.349357		-0.0681348
-0.264116		0.166836		-0.0750002
-0.267519		1.10175		-0.0458328
-0.224906		1.042		0.0297721
0.199497		0.937399		0.77515
0.102209		1.17432		0.618389
0.042011		1.23828		0.513752
-0.260425		1.29078		-0.0284444
0.153337		0.237839		0.669438
-0.0216514		0.187839		0.357337
-0.115144		0.218773		0.192655
0.110635		0.212317		0.592984
0.0660988		0.193518		0.513347
-0.170739		0.250037		0.0952498
-0.105168		1.22323		0.249166
-0.161213		1.17798		0.147356
-0.0104308		1.20564		0.418197
-0.223476		0.946634		0.0303387
-0.261016		0.419516		-0.0576453
-0.216626		0.344729		0.0181137
-0.221565		1.10843		0.0372246
-0.312494		1.28999		-0.122821
0.202823		0.204291		0.756971
-0.215291		0.251435		0.0159469
0.18556		0.346783		0.728305
-0.083525		0.178318		0.247051
0.0305429		0.185756		0.449937
-0.0546894		1.24245		0.340288
-0.213252		1.19434		0.0542064
0.239545		0.979544		0.850639
0.231543		0.682157		0.816101
0.100141		0.298875		0.576029
-0.130014		0.321432		0.17135
-0.257586		0.603791		-0.04256
-0.0130913		1.14931		0.411176
0.250717		0.907645		0.865069
-0.274011		0.907395		-0.0619714
0.193569		0.268446		0.741593
-0.029104		0.0922258		0.340447
-0.262791		0.998873		-0.039542
-0.138942		0.26241		0.152429
-0.264353		1.19625		-0.0379227
0.174498		0.141065		0.705111
0.364603		0.793116		0.837435
0.369814		0.486517		0.836013
0.376988		0.298417		0.84683
0.37594		0.117264		0.841839
0.373905		0.392303		0.842327
0.379642		0.888641		0.871334
0.371995		0.683664		0.844765
0.370891		0.583856		0.839543
0.377818		0.205903		0.84694
0.379082		0.986283		0.878189
0.266538		0.0346179		0.644151
0.108189		0.0297612		0.3605
-0.0580663		0.0604533		0.0647565
0.0571708		0.0303885		0.269152
-0.167147		0.0723848		-0.128169
0.21354		0.0317375		0.549231
0.0011446		0.0581081		0.170168
0.160851		0.0294907		0.454825
-0.113146		0.0664465		-0.0328343
0.320251		0.0301885		0.740172
-0.162685		1.38506		-0.073305
-0.107979		1.38208		0.0250905
-0.0523456		1.38166		0.125364
0.00106498		1.39201		0.222133
0.0515592		1.39642		0.313669
-0.215723		1.38674		-0.168949
0.104633		1.37538		0.408922
0.324578		0.756519		0.763623
0.321595		0.58337		0.751368
-0.0762788		0.341223		0.0456021
0.007142		0.282352		0.190281
-0.0792082		1.09139		0.0694254
0.233972		1.09631		0.625838
-0.125977		0.434942		-0.0376694
0.10707		0.242147		0.364994
0.133626		1.14518		0.4494
0.0436926		0.242275		0.253135
-0.146804		0.513839		-0.0707778
-0.151774		0.863752		-0.065815
-0.0186796		1.15284		0.178859
0.310315		0.473519		0.729471
0.23784		0.32745		0.59861
0.320531		0.86109		0.763126
0.148843		0.270283		0.439653
0.272411		0.413491		0.661054
0.0296971		1.15472		0.26509
0.172558		1.12259		0.517474
0.265896		1.02218		0.677585
-0.100137		1.01678		0.0305442
-0.168941		0.679557		-0.10298
-0.177101		0.793519		-0.113688
-0.218946		0.990469		-0.184363
-0.212249		0.70919		-0.180216
-0.212957		0.592088		-0.186229
-0.219085		1.19263		-0.179832
-0.2347		0.788478		-0.21849
-0.221211		0.176061		-0.219711
-0.220985		0.273236		-0.215114
-0.21986		1.0933		-0.183596
-0.216252		0.87426		-0.182344
-0.203885		0.478537		-0.174974
-0.218049		0.371203		-0.205477
0.179607		1.33421		0.542755
0.314494		1.07556		0.769217
0.282077		1.15394		0.716787
0.237682		1.23817		0.642374
0.373096		0.0280111		0.834648
0.325851		0.37478		0.756251
0.333416		0.199754		0.767386
0.332341		0.286601		0.766831
-0.220183		0.0782956		-0.221744
0.162865		0.112696		0.460745
0.213763		0.122839		0.551896
0.325856		0.118782		0.752215
0.0391369		0.130432		0.240751
-0.0580249		0.156962		0.0690529
-0.014441		0.12838		0.145312
-0.115656		0.158809		-0.0331828
0.108697		0.118585		0.364246
0.0113587		1.31435		0.237958
0.0490931		1.33977		0.306956
-0.109956		1.2877		0.018998
-0.045751		1.27879		0.13406
0.0834526		1.30147		0.367281
-0.170543		0.259668		-0.125945
-0.170078		0.349061		-0.120834
-0.16919		0.166479		-0.127734
-0.172614		1.10139		-0.0981075
-0.129953		1.04165		-0.0226433
0.294619		0.937345		0.722428
0.197566		1.17431		0.565811
0.137323		1.23824		0.461174
-0.165464		1.29047		-0.0806993
0.248717		0.23775		0.616711
0.0738831		0.187611		0.304515
-0.019745		0.218524		0.139751
0.206089		0.212187		0.540256
0.161601		0.193344		0.460597
-0.0754638		0.249783		0.0423232
-0.00991146		1.22304		0.196608
-0.0660437		1.17772		0.0948329
0.084969		1.20556		0.365613
-0.128612		0.946277		-0.0220726
-0.166159		0.419233		-0.110344
-0.121574		0.344466		-0.0347499
-0.126566		1.1081		-0.0152013
-0.217609		1.28965		-0.174813
0.298066		0.204221		0.704205
-0.120168		0.251157		-0.0369386
0.280855		0.346748		0.675567
0.0119029		0.178076		0.194175
0.126069		0.185556		0.397159
0.040605		1.24233		0.287711
-0.118201		1.19405		0.00177322
0.334704		0.979518		0.797876
0.326422		0.682144		0.763173
0.195746		0.298751		0.523314
-0.0346374		0.321182		0.118427
-0.162822		0.603531		-0.0951675
0.0824566		1.14922		0.358597
0.345883		0.907609		0.812239
-0.179149		0.90703		-0.114311
0.288857		0.268391		0.688845
0.0662405		0.0920032		0.287627
-0.167906		0.998503		-0.0918716
-0.0435841		0.26216		0.0995074
-0.169431		1.19591		-0.0901776
0.269756		0.14097		0.652353
0.524228		0.27756		-1.17119
0.438183		0.2668		-1.08445
0.437178		0.322248		-1.22547
0.395722		0.261231		-1.18627
0.53281		0.20155		-1.15535
0.560916		0.291037		-1.08915
0.0928046		1.33353		-0.728692
0.14611		1.23063		-0.691601
0.0455089		1.25281		-0.740353
0.14104		1.27853		-0.791366
-0.0482392		1.30004		-0.77384
0.0104931		1.24553		-0.845783
0.0536358		1.31364		-0.641779
0.0518746		1.40645		-0.802961
0.168329		1.41478		-0.801244
0.418916		0.896985		-1.1728
0.31129		0.883945		-1.1527
0.190055		1.33495		-0.678938
-0.160341		0.460921		-0.670762
-0.217561		0.555426		-0.743151
-0.150459		0.526169		-0.78527
-0.232663		0.425078		-0.711201
-0.114084		0.462586		-0.569568
-0.0970023		0.417142		-0.64816
-0.086834		0.506876		-0.639831
-0.00115793		0.478272		-0.7139
1.47094		0.178109		-1.74035
1.52368		0.0797988		-1.78003
1.44578		0.0761148		-1.72862
1.46274		0.167553		-1.82954
1.47097		0.185792		-1.64163
1.50581		0.245249		-1.72054
1.40051		0.264043		-1.73746
1.55202		0.122762		-1.6962
1.55015		0.198284		-1.78889
1.45807		0.252101		-1.80634
1.34279		1.11781		-1.47401
1.33091		1.20739		-1.48195
1.35735		1.15153		-1.56806
1.24956		1.16112		-1.53605
1.40617		1.12768		-1.40909
1.38451		1.20754		-1.40216
1.44452		1.164		-1.49281
1.29591		1.09916		-1.55054
1.35446		1.04125		-1.55836
1.2676		0.995106		-1.51034
1.33922		1.15596		-1.37044
1.27037		1.10052		-1.39874
1.37797		1.04827		-1.41078
1.42857		1.06806		-1.50884
-1.69057		0.168112		0.00549436
-1.62985		0.158757		0.0880491
-1.72579		0.13892		0.0975305
-1.6363		0.0868533		-0.0135262
-1.7234		0.068521		-0.100229
-1.73441		0.0893746		0.00877621
-1.75547		0.172089		-0.0708229
-1.78384		0.166461		0.0379021
-1.75348		0.27097		-0.0506518
-1.69608		0.236772		0.0611971
0.137984		0.835852		-0.944949
0.0499099		0.892769		-0.974552
0.132645		0.927584		-0.91062
0.186307		0.922664		-1.00879
0.24735		0.851456		-0.972334
0.180167		0.792018		-1.08443
0.0593542		0.764547		-0.988143
0.0882576		0.772288		-0.875108
-0.73083		1.42111		-0.0930435
0.147697		0.728699		-1.0323
0.191153		0.746603		-0.931073
-1.76356		0.141224		0.193954
-1.853		0.0757705		0.222792
-1.7227		0.0794507		0.282683
-1.79712		0.241351		0.120057
-1.82375		0.0794487		0.15413
-1.79361		0.148555		0.282835
-1.66531		0.231054		0.169416
-1.65581		0.145876		0.215486
1.23385		1.31873		-1.41268
1.32935		1.28649		-1.44648
1.26227		1.41482		-1.43449
1.28779		1.30904		-1.3172
1.23689		1.34525		-1.5396
1.14841		1.32879		-1.49081
1.18575		1.42102		-1.50425
1.1667		1.2391		-1.38871
1.20858		1.26074		-1.52764
1.26442		1.19447		-1.43645
0.13816		1.11283		-0.667877
0.27375		1.19734		-0.73074
0.209995		1.13722		-0.621539
1.13314		1.36418		-1.38314
1.74384		1.044		-1.66454
1.69403		1.16638		-1.69331
1.64934		1.0763		-1.70536
1.74468		0.924233		-1.68593
1.69657		0.97038		-1.73796
1.63252		1.13213		-1.57622
1.64997		1.01481		-1.63681
1.7596		1.04796		-1.56288
1.78297		0.94956		-1.62347
1.649		1.0372		-1.53101
1.53365		1.02134		-1.58857
1.54303		1.10796		-1.60584
1.56898		1.11586		-1.49966
1.56748		1.01933		-1.50491
1.65798		0.961872		-1.55912
-0.293046		1.20862		-0.644546
-0.265139		1.31444		-0.72572
-0.350227		1.30433		-0.772805
-0.28365		1.30573		-0.617195
-0.175552		1.23991		-0.709005
-0.159237		1.31297		-0.773705
-0.209597		1.21877		-0.842723
-0.340974		1.41032		-0.697041
-0.160998		1.41893		-0.628133
-0.175494		1.32148		-0.685595
-0.343519		1.38463		-0.7862
-0.239709		1.41007		-0.752992
-0.778126		1.42145		-0.194342
-0.636445		1.42088		-0.126591
-0.306372		1.21496		-0.793986
-0.261682		1.30572		-0.832103
1.35659		0.262369		-1.59688
1.47901		0.274179		-1.53459
1.44253		0.270159		-1.63981
1.38371		0.200919		-1.53247
1.53019		0.178113		-1.54462
1.44231		0.128475		-1.56814
1.44349		0.160392		-1.44443
1.39517		0.273475		-1.43723
0.651844		0.184848		-1.04644
0.718574		0.264795		-0.979319
0.750724		0.163648		-1.07683
0.736563		0.250433		-1.12034
0.729235		0.0735358		-1.03837
0.726932		0.184859		-0.953426
0.606744		0.144203		-1.14949
-1.52972		0.0682962		-0.173033
-1.64731		0.172346		-0.119786
-1.51988		0.0779999		-0.066893
0.645912		0.267614		-1.07245
0.562337		0.203725		-1.01653
0.621208		0.26419		-0.924315
-0.633695		1.31725		-0.326328
-0.59532		1.20603		-0.351646
-0.547173		1.27013		-0.375802
-0.469198		1.2581		-0.250313
-0.725662		1.28445		-0.324882
-0.682189		1.34976		-0.241559
-0.764127		1.36532		-0.360041
-0.540231		1.34909		-0.323535
-0.676124		1.42181		-0.32635
-0.596376		1.42346		-0.254929
-0.594321		1.36402		-0.451311
-0.696212		1.42529		-0.449627
-0.606727		1.42614		-0.396272
-0.699337		0.908546		-0.176344
-0.776255		0.999026		-0.119809
-0.737804		0.905658		-0.275562
-0.84299		0.893881		-0.225584
-0.586384		1.266		-0.48392
-0.676715		1.30992		-0.481434
-1.99651		0.172851		0.130747
-1.90183		0.137991		0.17777
-1.97103		0.22363		0.245549
-2.00888		0.104495		0.204192
-2.06644		0.240705		0.0685493
-2.08252		0.161126		0.144145
-2.03284		0.252196		0.146989
-1.99128		0.245732		0.0668034
-2.03227		0.173873		0.0463967
-1.91113		0.186538		0.107156
-1.90593		0.0834596		0.0992301
-2.04946		0.173911		0.244861
0.0483633		1.28548		-0.913983
0.207767		1.24492		-0.891904
0.0949021		1.20353		-0.820305
-0.0187915		1.12877		-0.778753
0.233422		1.18234		-0.858235
0.079435		1.15635		-0.700526
0.107241		1.17608		-0.915166
-0.0552821		1.40231		-0.74696
-0.134966		1.40873		-0.81355
-0.148476		1.30549		-0.885055
-0.039589		1.31346		-0.871993
-0.111575		1.24005		-0.870926
-0.0849337		1.23049		-0.756054
0.352547		1.43211		-0.675231
0.70744		0.779546		-1.15742
0.638589		0.777052		-1.03073
0.742629		0.715163		-1.09357
0.691941		0.861676		-1.02642
-1.15048		1.23914		-0.329384
-1.15533		1.21113		-0.24632
-0.998118		1.22924		-0.261283
-1.0921		1.26538		-0.211355
0.60482		0.813867		-1.19158
0.782094		0.78767		-1.26432
0.682332		0.777823		-1.35539
0.677097		0.904028		-1.20591
0.731809		0.713757		-1.22577
0.634702		0.717615		-1.16753
0.977294		0.796548		-1.31014
0.852616		0.824591		-1.42055
1.0377		0.793775		-1.40396
0.994628		0.724071		-1.37687
0.986149		0.882527		-1.38188
1.07036		0.811129		-1.26652
1.11653		0.73882		-1.31922
0.629752		0.394294		-1.12721
0.528793		0.491022		-1.12639
0.669659		0.458644		-1.07246
0.639742		0.487273		-1.19345
0.570488		0.420803		-1.28297
0.518892		0.396366		-1.14793
0.604499		0.329167		-1.17854
0.590298		0.380655		-1.04774
0.701262		0.393212		-1.22178
0.737454		0.469376		-1.1663
0.724639		0.362392		-1.11034
0.170951		0.51777		-0.847836
0.040722		0.591691		-0.791454
0.167478		0.54455		-0.744305
0.195344		0.615355		-0.819867
0.121803		0.617216		-0.915907
0.245876		0.557758		-0.964894
0.0579657		0.476388		-0.825508
0.0804795		0.5385		-0.932127
0.0843292		0.456381		-0.909632
1.44613		0.440916		-1.56742
1.4369		0.529706		-1.49846
1.33198		0.51509		-1.48957
1.38219		0.427561		-1.46462
1.51427		0.411498		-1.66465
1.4761		0.368747		-1.51784
1.44047		0.361195		-1.63812
1.46464		0.461539		-1.4447
1.38204		0.352916		-1.5556
1.3392		0.416725		-1.61385
1.54925		0.192508		-1.40391
1.5267		0.761609		-1.57668
1.47642		0.843537		-1.57065
1.64557		0.859331		-1.56377
1.59219		0.808645		-1.65581
1.57392		0.688194		-1.61299
1.42487		0.690226		-1.62386
1.51298		0.741381		-1.65643
1.64457		0.765528		-1.5709
1.62169		0.745174		-1.46662
-0.72118		0.537899		-0.437277
-0.651162		0.458419		-0.475867
-0.630668		0.536273		-0.351883
-0.701196		0.479448		-0.325327
-0.699446		0.597013		-0.312336
-0.680699		0.611827		-0.451231
-0.752601		0.53872		-0.543162
-0.619849		0.545832		-0.49093
1.46072		0.0598749		-1.61651
1.57621		0.0624151		-1.57448
1.37649		0.167738		-1.69566
1.60643		0.161384		-1.63551
1.54808		0.247191		-1.63874
1.35069		0.112924		-1.77369
1.34662		0.212074		-1.77274
1.28375		1.22		-1.34664
1.00614		1.02471		-1.54094
1.1514		1.14297		-1.40151
1.23265		1.14886		-1.32862
1.17206		1.17957		-1.50708
1.12804		1.23525		-1.47606
1.07201		1.29162		-1.45991
1.63079		0.124315		-1.74227
1.67539		0.0575998		-1.69206
1.59258		0.249914		-1.55435
1.65933		0.254473		-1.65212
1.64012		0.212763		-1.74656
1.69886		0.159865		-1.65823
1.73521		0.21381		-1.49366
1.13123		0.898392		-1.37579
1.25258		0.872192		-1.31627
1.23968		0.944118		-1.37029
1.10788		0.893826		-1.27002
1.2212		0.817373		-1.36471
1.18333		0.820123		-1.47423
1.04441		0.873245		-1.52561
1.17819		0.902906		-1.47171
-0.846548		1.35778		-0.036958
1.16955		0.751477		-1.3977
1.09685		1.00966		-1.28745
1.0521		0.953656		-1.37306
1.15303		0.992244		-1.48723
1.04488		0.960527		-1.50013
-0.967333		1.0807		-0.286184
-0.890528		1.03306		-0.336992
-0.872414		1.01189		-0.211683
-0.969263		0.965598		-0.288109
0.94071		1.11879		-1.41541
0.963376		1.05089		-1.37619
1.60657		1.32324		-1.47368
1.72672		1.22402		-1.44043
1.59206		1.26939		-1.37765
1.61914		1.22038		-1.47326
0.403177		0.51979		-0.747948
0.269856		0.516268		-0.666731
0.36162		0.630023		-0.706668
0.268936		0.615244		-0.728223
-0.793521		0.156463		-0.489433
-0.699947		0.187782		-0.514098
-0.718386		0.0749572		-0.507435
-0.770063		0.187526		-0.597232
-0.710409		0.130664		-0.422127
-0.822408		0.0833245		-0.455527
-0.812787		0.25164		-0.52201
-0.758285		0.233821		-0.43909
-0.867213		0.195856		-0.411547
-0.79604		0.120769		-0.387649
-1.88339		0.566523		0.268282
-1.96016		0.564053		0.210384
-1.88564		0.476883		0.262762
-2.00933		0.545944		0.332616
-1.97321		0.46044		0.247783
-1.92577		0.39888		0.341932
-2.01945		0.361073		0.27501
-1.88015		0.391726		0.259239
-1.90708		0.471271		0.409411
-2.03024		0.621015		0.293624
-1.93875		0.710233		0.271735
-2.00518		0.634369		0.184221
-1.8909		0.541984		0.149192
-1.89169		0.639655		0.1522
-1.985		0.563571		0.0682315
-2.02541		0.555571		0.149735
-2.01405		0.449767		0.33047
-2.0718		0.547715		0.23271
-2.06535		0.441011		0.233427
-1.71965		0.878759		0.345547
-1.70888		0.899783		0.196203
-1.74197		0.809672		0.329186
-1.80006		0.919652		0.233652
-2.01948		0.450911		0.14502
0.321161		1.07091		-0.675737
0.19977		1.02591		-0.681518
0.313894		1.13239		-0.715555
0.299965		1.01679		-0.760836
0.169847		1.11693		-0.799343
-1.80737		1.19543		0.0512502
-1.88033		1.23449		0.0319761
-1.80743		1.23834		-0.0040696
0.230275		1.05341		-0.78278
0.194108		1.03642		-0.897377
1.68877		0.295918		-1.79578
1.72761		0.372605		-1.74105
1.59706		0.359982		-1.66745
1.66807		0.19437		-1.55823
1.79594		0.211781		-1.61857
1.67007		0.282809		-1.55582
1.74105		0.210579		-1.72859
1.56026		0.330572		-1.57752
-1.99351		1.17551		0.250916
-1.93413		1.25057		0.207644
-1.96779		1.19398		0.342017
-1.8575		1.21935		0.267956
-1.92729		1.16315		0.165065
-2.0246		1.08927		0.283092
-2.02243		1.15826		0.153254
-1.94242		1.07942		0.178526
-2.12049		1.12921		0.255428
-0.870808		1.25973		-0.0377404
-0.840707		1.17734		-0.0914069
-0.200812		0.700979		-0.659293
-0.112033		0.724737		-0.691045
-0.193608		0.764898		-0.766193
-0.246315		0.771626		-0.683671
-0.232041		0.691776		-0.745095
-0.104846		0.778482		-0.606135
-1.68296		1.20843		0.343446
-1.71367		1.1052		0.207665
-1.57854		1.18043		0.276522
-1.62446		1.08507		0.276961
-0.16421		0.725927		-0.558169
-0.198776		0.82184		-0.586979
-0.283099		0.658689		-0.542716
-0.27771		0.672734		-0.666075
-0.193912		0.63556		-0.581029
-0.335062		0.777542		-0.640548
-0.298252		0.752629		-0.534319
0.417979		0.757642		-1.0073
0.540489		0.694103		-1.05848
0.526093		0.764154		-1.12735
0.523682		0.777518		-0.959862
0.511105		0.842766		-1.07231
0.412789		0.838989		-0.952182
0.458293		0.656092		-0.951711
-0.932689		0.813151		-0.0239941
-0.95079		0.692498		-0.172288
-1.06942		0.784261		-0.111046
-1.00107		0.781238		-0.211086
0.389686		0.775436		-0.852101
0.383183		0.712186		-0.909594
1.48937		0.926429		-1.68647
1.46476		0.985653		-1.55798
1.57389		0.934338		-1.6327
1.5082		1.01715		-1.67912
1.57417		0.926759		-1.51011
1.43044		1.11382		-1.62459
1.415		0.981342		-1.64279
1.70203		1.02817		-1.4502
1.65184		0.951061		-1.43509
-1.86408		0.23761		0.185833
-1.94189		0.261614		0.157272
-1.90439		0.276983		0.260537
-0.943885		0.0911447		-0.409884
-1.06406		0.169292		-0.437544
-1.0515		0.0923519		-0.326808
-0.942853		0.16287		-0.360586
-0.857683		0.0705278		-0.286972
-0.874984		0.221072		-0.234577
-0.975164		0.13382		-0.281916
-1.0273		0.257746		-0.41101
-1.07857		0.180331		-0.300687
-0.947143		0.244821		-0.317963
-0.972333		0.266097		-0.463954
-0.964287		0.175032		-0.480252
-1.63756		0.218226		0.28602
-1.77769		0.217768		0.227907
-1.86634		0.137731		0.412777
-1.8793		0.174132		0.272015
-1.8248		0.0716432		0.322918
-1.85482		0.223385		0.355995
-1.76916		0.138547		0.380355
-1.66761		0.138515		0.338419
-1.76489		0.231493		0.356927
-0.570166		0.613113		-0.522251
-0.568548		0.597227		-0.388117
0.852312		0.581353		-1.30825
0.912183		0.516848		-1.33151
0.941141		0.646549		-1.3492
0.966406		0.604646		-1.2333
1.03186		0.538568		-1.34262
0.993477		0.501887		-1.24189
0.99822		0.5491		-1.44304
1.06245		0.624762		-1.41872
1.14479		0.558506		-1.45062
0.994171		0.468763		-1.38021
1.06667		0.426668		-1.43647
1.07813		0.603012		-1.2933
1.11844		0.488606		-1.3252
0.958168		0.77685		-1.20301
0.901829		0.740013		-1.31626
1.02202		0.725086		-1.26445
1.01264		0.799914		-1.08597
1.0736		0.729186		-1.15075
1.14595		0.853456		-1.14879
0.961829		0.875423		-1.2489
1.01478		0.89194		-1.16453
-0.969333		0.302169		-0.378715
-0.856467		0.267813		-0.357722
-0.919201		0.361963		-0.336325
-1.02034		0.341059		-0.280212
-1.0798		0.27208		-0.268368
-0.967995		0.354694		-0.474097
-1.06032		0.342849		-0.428501
0.571844		0.578714		-1.0833
0.619266		0.611284		-1.16772
0.644097		0.663632		-1.04573
0.570982		0.459445		-0.998616
0.684108		0.549245		-1.06855
-0.441822		0.577652		-0.327898
-0.479561		0.558739		-0.438052
-0.452709		0.657824		-0.464109
-0.58009		0.492983		-0.586151
-0.56191		0.542023		-0.655678
-0.56451		0.456122		-0.67993
-0.635868		0.458696		-0.637882
0.491113		0.607867		-1.09438
-0.815691		0.549085		-0.3831
-0.779194		0.563126		-0.27304
-0.886403		0.646189		-0.343736
0.52515		0.549724		-0.980842
0.54495		0.62676		-0.992963
-0.83189		1.42226		-0.0406065
-1.91545		0.625999		0.0496081
-0.231988		0.0825107		-0.797802
-0.255265		0.164421		-0.753452
-0.323008		0.0762216		-0.734264
-0.240576		0.0740701		-0.660952
-0.317689		0.136535		-0.679762
-0.672786		0.0706745		-0.381483
1.06687		1.05083		-1.18084
-0.321049		0.145681		-0.560496
-0.342194		0.0570363		-0.570619
-0.44244		0.089876		-0.691289
-0.409695		0.128667		-0.600135
-0.447799		0.110265		-0.780725
-0.383659		0.186973		-0.689399
1.3813		0.767459		-1.52851
1.48683		0.709472		-1.48044
1.53936		0.8044		-1.49488
1.34512		0.830355		-1.5757
1.40886		0.906633		-1.55067
1.40075		0.880128		-1.6463
1.47739		0.821432		-1.67201
1.06008		1.02148		-1.43458
1.19237		1.04197		-1.40654
1.18856		1.08761		-1.51515
1.06515		1.11383		-1.46241
1.15891		1.10283		-1.14798
1.18169		1.24782		-1.14461
1.07901		1.16116		-1.17787
1.0688		1.09711		-1.36326
-1.96811		1.34482		0.131973
-1.93478		1.39131		0.0293934
-2.00313		1.4288		0.150272
-1.91668		1.41569		0.0976337
-1.93194		1.27319		0.102381
-1.90898		1.3099		0.0227526
-1.84046		1.30013		0.0928353
-1.92381		1.42275		0.195854
-1.80454		1.35212		0.152485
-1.87325		1.33538		0.282437
-2.00173		1.32905		0.229246
-2.02193		1.26827		0.160294
-2.0695		1.38363		0.0861356
-2.11211		1.36626		0.216062
0.229648		0.61845		-1.03225
0.262278		0.680836		-0.983575
0.134445		0.618669		-1.06691
0.241219		0.67849		-1.12093
0.240622		0.523576		-1.08507
0.306421		0.612072		-1.13392
0.322101		0.71394		-1.00959
0.366807		0.589331		-1.02435
-0.354732		0.454953		-0.640543
-0.363465		0.496827		-0.506597
-0.291738		0.373852		-0.543709
-0.24029		0.484855		-0.57689
-0.79836		0.405214		-0.269992
-0.876958		0.372208		-0.216913
-0.808736		0.321332		-0.269022
-0.205477		0.379349		-0.461503
-0.197731		0.473034		-0.457692
-0.302807		0.420402		-0.471544
-0.273254		0.453355		-0.381286
-0.391207		0.324044		-0.500121
-0.407747		0.402986		-0.481168
-0.347023		0.376898		-0.385692
-0.3135		0.473736		-0.419823
-0.123953		0.909072		-0.537817
-0.215961		0.917819		-0.566989
-0.19489		0.993291		-0.571293
-0.109601		0.968452		-0.604863
-0.0383223		0.972937		-0.49819
-0.123549		1.01094		-0.444138
-0.0229408		0.87055		-0.501721
-0.0691668		0.897994		-0.631935
-0.058442		0.835085		-0.569176
-0.235548		0.85859		-0.516035
-0.159971		0.935874		-0.43696
-0.141948		0.810329		-0.45454
-0.269171		0.490638		-0.855488
-0.22697		0.580272		-0.885946
-0.970247		0.431195		-0.309891
-0.939405		0.458006		-0.459271
-0.133828		0.615236		-0.694824
-0.296013		0.587086		-0.669032
-0.174364		0.536263		-0.59349
-0.267164		0.499775		-0.693394
0.046017		0.750103		-0.598053
-0.00402508		0.853001		-0.687253
0.0550056		0.845554		-0.590368
-0.0448263		0.798416		-0.502247
-0.758684		0.348286		-0.568033
-0.783617		0.342373		-0.397192
-0.75884		0.458929		-0.431727
-0.873922		0.351716		-0.518608
-0.578825		0.465505		-0.384563
-0.490419		0.46341		-0.44333
-0.963812		0.898168		-0.154863
-0.0917316		0.0549267		-0.481601
-0.881603		0.946963		-0.137323
-0.86094		0.862478		-0.0881682
-0.926647		0.924279		-0.0230454
-0.935789		0.98732		-0.0474409
-0.965975		1.01167		-0.15198
-1.20986		1.28025		0.102549
-1.31577		1.2784		0.158416
-1.24989		1.19117		0.112157
-0.574632		0.423998		-0.526165
-0.504101		0.36291		-0.508638
-0.489278		0.30795		-0.634737
-0.47656		0.429021		-0.586853
-0.60509		0.33763		-0.51288
-0.573445		0.37177		-0.393701
-0.560034		0.346661		-0.688856
-0.416488		0.366242		-0.611131
0.0274645		0.38027		-0.781652
0.0809521		0.372549		-0.894394
0.126246		0.442517		-0.783412
-0.0639312		0.460555		-0.825691
-0.015901		0.509681		-0.881409
0.0874141		0.488665		-0.708386
0.229034		0.509061		-0.767075
0.245818		0.447045		-0.84514
0.317625		0.530395		-0.861661
0.177622		0.491528		-0.945404
-1.58653		0.755174		0.306802
-0.463302		1.01053		-0.627696
-0.579004		0.93605		-0.643493
-0.514921		0.980721		-0.53541
-0.542771		1.02992		-0.668445
-0.398332		1.02212		-0.533587
-0.386042		0.956766		-0.59638
-0.357884		1.06533		-0.615359
-0.459579		1.14196		-0.684764
-0.48294		1.07418		-0.555053
-0.417694		1.05163		-0.709105
-0.482467		0.938823		-0.70686
-0.0363359		0.655612		-0.687122
-0.0911327		0.624003		-0.603352
-0.171422		0.834799		-0.71055
-0.0457897		0.693651		-0.829585
-0.120773		0.668565		-0.782334
-0.108676		0.783451		-0.752514
0.0117782		0.719431		-0.710258
1.28115		0.818044		-1.47755
1.28381		0.911573		-1.52018
1.30693		0.882238		-1.40285
1.38482		0.93084		-1.46188
-0.767015		0.616663		-0.416384
1.21646		0.701251		-1.51876
1.2491		0.695186		-1.40721
1.25327		0.768389		-1.56169
-0.654771		1.23215		-0.604968
-0.653552		1.3227		-0.614435
-0.729377		1.27337		-0.55467
-0.782202		0.712561		-0.268395
-0.993861		0.707375		-0.282946
-0.846765		0.665295		-0.22764
-0.898083		0.799813		-0.201947
-0.863675		1.21242		-0.207095
-0.875796		1.11835		-0.204911
-0.73983		1.1875		-0.143359
1.30822		0.779736		-1.39246
-0.209049		1.01478		-0.760716
-0.110232		1.03931		-0.726964
-0.126463		1.137		-0.74146
-0.258689		1.04869		-0.65667
-0.314262		1.06441		-0.760184
-0.290018		1.12952		-0.799852
-0.226566		1.1645		-0.687587
-1.79578		1.26412		0.2373
-1.86594		1.21888		0.142249
-0.242278		0.958661		-0.681422
-0.277013		0.933551		-0.815611
-0.131087		0.951921		-0.684057
-0.146467		0.942243		-0.777137
-0.195368		0.927758		-0.874915
-0.192562		1.04422		-0.833104
-0.406346		0.05786		-0.409381
1.56997		0.731789		-1.76622
1.46651		0.626529		-1.76419
1.52764		0.633319		-1.67063
1.44874		0.733096		-1.74555
1.55684		0.576474		-1.7619
1.54572		0.850063		-1.72447
1.64237		0.616443		-1.71114
1.6538		0.604099		-1.83233
1.66055		0.704147		-1.82521
1.652		0.807055		-1.81778
1.64679		0.720702		-1.69623
1.51476		0.845247		-1.81997
1.58359		0.759349		-1.87624
1.50842		0.726664		-1.82837
0.819355		0.389281		-1.10833
0.844022		0.444114		-1.18741
0.799368		0.43394		-1.02816
0.858427		0.501067		-1.04441
0.907695		0.400728		-1.05405
0.796191		0.54939		-1.14811
0.81084		0.292705		-1.16026
0.890807		0.324787		-1.19818
0.869492		0.317518		-1.06065
0.756401		0.338158		-0.99764
-0.221738		0.77547		-0.436519
-0.304047		0.890236		-0.505096
-1.67236		1.37854		0.133448
-1.68876		1.35811		0.254548
-1.68575		1.27028		0.199048
-1.59458		1.32657		0.173425
-0.244632		0.912577		-0.397492
-0.271369		0.852935		-0.678036
1.31666		0.997838		-1.41179
1.40485		1.25826		-1.52894
1.54743		0.121026		-1.87844
1.67275		0.127923		-1.84078
1.61296		0.0607229		-1.81308
1.65009		0.209715		-1.84822
1.65447		0.0819896		-1.54395
1.72898		0.118911		-1.76042
-1.59584		1.42695		0.0948345
1.36036		0.371475		-1.73639
1.50056		0.331433		-1.69145
1.41911		0.427777		-1.69382
1.4396		0.325257		-1.79282
1.43422		0.436955		-1.78247
1.51339		0.539217		-1.67256
1.42261		0.512853		-1.619
1.32301		0.499101		-1.72873
1.33591		0.532109		-1.57144
1.40172		0.673346		-1.53977
1.3075		0.679399		-1.48876
1.36524		0.59206		-1.52237
1.38705		0.646052		-1.45331
1.38986		0.750146		-1.40666
1.34302		0.721198		-1.61711
1.29637		0.658852		-1.57879
1.03264		0.539798		-1.54728
0.950458		0.643376		-1.50727
1.36244		0.571182		-1.6498
1.37503		1.28196		-1.25317
1.45037		0.595107		-1.62364
1.34583		0.688165		-1.72881
1.27236		0.650327		-1.6808
1.39279		0.600098		-1.72972
-1.56187		1.24073		0.0161804
-1.63849		1.23884		-0.0734749
-1.51365		1.16452		-0.00797985
-1.61518		1.16086		0.0416214
1.27079		0.536243		-1.68163
-0.541949		0.583933		-0.260425
-0.586336		0.643796		-0.304031
-0.641149		0.576996		-0.199917
-0.641893		0.483383		-0.213607
-0.469329		0.457918		-0.277404
0.856838		0.190507		-1.17102
0.704037		0.143812		-1.20455
0.841746		0.0774856		-1.10381
0.655474		0.0628956		-1.17277
-1.35548		1.19753		-0.146178
-1.44925		1.14725		-0.148621
-1.37822		1.15723		-0.0550258
-1.44587		1.22285		-0.183952
-1.38955		1.04529		-0.0724868
-1.29795		1.32827		-0.146623
-1.34675		1.26135		-0.0716539
-1.26823		1.22716		-0.120354
-1.3344		1.2458		-0.222094
-1.29742		1.08125		-0.117705
-1.5063		0.15035		0.0301564
-1.56408		0.0750209		0.0922679
-1.49839		0.146379		0.143679
-1.56936		0.253545		0.100201
-1.47128		0.271414		-0.0385517
-1.36311		0.15579		0.048949
-1.46252		0.226367		0.0757297
-1.56627		0.264207		0.00738126
-1.47571		0.190308		-0.0883173
-1.42864		0.0823206		-0.105549
-1.59707		0.19293		-0.0301142
-1.21728		0.0774018		-0.217224
-1.31984		0.139598		-0.0964298
-1.25917		0.0703723		-0.0663219
-1.16911		0.17005		-0.150634
-1.27258		0.231758		-0.0135747
-1.16115		0.156423		-0.0557195
-1.16367		0.288087		-0.06764
-1.16271		0.192976		-0.257628
-1.03188		0.178184		-0.200349
-1.13987		0.0827056		-0.20113
-1.08161		0.226513		-0.126685
-2.0019		1.21377		0.0584371
-1.76257		1.28536		0.346669
-2.13327		1.24506		0.240776
-2.0446		1.28622		0.295792
-1.8971		1.09643		0.275047
-1.65817		1.26317		0.0668425
-1.58223		1.17373		0.155009
-1.51874		1.22011		0.111318
-1.12769		1.42723		-0.12016
-1.19597		1.37378		-0.115445
-1.2027		1.42958		-0.186884
-1.13025		1.41414		0.0146422
-1.2818		1.4286		-0.0187605
-1.04655		1.32938		-0.0885304
-1.0059		1.42116		-0.0349161
0.102774		1.41285		-0.631005
0.0146512		1.4029		-0.683788
-0.0444607		1.31581		-0.586422
0.0782294		1.38071		-0.531775
-0.0109136		1.41832		-0.581301
-1.57203		1.42521		0.208829
-0.0736007		1.34851		-0.664189
0.00623867		1.23262		-0.668162
-1.4077		1.21739		0.0741067
-1.4584		1.18444		0.210305
-1.3577		1.18174		0.153994
-1.3982		1.26721		0.216559
-1.58302		1.32219		0.0571471
-1.70766		1.43703		0.0370353
-1.74429		1.41586		0.125943
-1.77373		1.43126		0.204974
-1.74615		1.26623		0.0993367
-1.70888		1.33898		-0.0493694
-1.53945		1.31819		-0.0379092
-1.46323		1.23843		-0.0275375
-1.5437		1.24048		-0.122527
0.629982		0.884445		-1.1221
0.558165		0.901736		-1.19885
0.697469		0.914858		-1.11256
0.728754		0.919872		-1.27792
0.637574		0.902506		-1.33264
0.823066		0.915109		-1.20168
0.780375		0.833612		-1.14083
-1.06853		0.800543		-0.365524
-1.1035		0.754879		-0.220818
-1.06477		0.894458		-0.23751
-0.909785		0.682052		-0.0691235
-1.05313		0.693374		-0.121635
1.23313		0.515139		-1.46204
1.28902		0.409093		-1.50316
1.29094		0.427974		-1.37776
1.14467		0.434789		-1.4741
1.20409		0.392093		-1.5477
1.23962		0.495554		-1.56148
-1.35943		1.32866		-0.232856
1.22778		0.59155		-1.53074
1.2832		0.597337		-1.42171
-1.31151		1.42225		-0.144479
-1.4297		1.41735		-0.11709
0.355163		0.0635717		-1.01485
0.413158		0.147568		-1.05317
0.372314		0.103968		-0.928985
0.483131		0.112266		-0.985321
0.512774		0.0582344		-0.954404
0.302423		0.133655		-0.984547
0.286622		0.068263		-1.05573
0.337675		0.203119		-1.04577
0.369702		0.0801491		-1.11886
-0.935176		1.4227		0.0132527
-1.44066		1.33128		-0.171263
-1.36408		1.37014		-0.047381
-1.45748		1.36797		-0.000719634
1.5079		0.988253		-1.46255
1.48877		0.901845		-1.46189
0.126942		1.04035		-1.06549
-1.45933		1.32156		0.109376
-1.34909		1.36049		0.214516
-1.3689		1.35302		0.113041
-0.407781		1.33496		-0.644871
-0.428353		1.22566		-0.701803
-0.378823		1.24919		-0.592574
-0.343876		1.2641		-0.47857
-0.266218		1.1977		-0.526106
-1.04357		1.34251		0.054337
-0.364285		1.36616		-0.570045
1.75719		0.292505		-1.67636
1.79165		0.117288		-1.63677
-1.03207		1.42851		-0.178752
-1.09583		1.36133		-0.182241
-1.10444		1.428		-0.239989
-1.03257		1.41142		-0.316647
-0.960737		1.37114		-0.240003
1.25349		0.319634		-1.46068
1.28981		0.337395		-1.59263
1.17562		0.371649		-1.41702
1.15604		0.301935		-1.47435
1.34032		0.327786		-1.40676
1.31965		0.25186		-1.50809
1.29838		0.250893		-1.42163
1.26604		0.355895		-1.36146
1.16623		1.37189		-1.61433
1.36859		1.34118		-1.55088
1.36769		1.4036		-1.45498
1.28415		1.20618		-1.56267
1.30078		1.30627		-1.60252
1.41778		0.982316		-1.40215
1.48465		1.08862		-1.4381
1.44566		1.03505		-1.33863
1.36536		0.989023		-1.3032
1.44126		0.906942		-1.3359
1.53386		0.981204		-1.35743
1.56967		0.376778		-1.76755
1.54759		0.291651		-1.78262
1.52813		0.356796		-1.85947
1.58618		0.465952		-1.75094
1.52877		0.456575		-1.85538
1.65943		0.466892		-1.84224
0.216344		0.158015		-1.04802
0.218829		0.253092		-0.977112
0.115875		0.179912		-1.0887
0.192994		0.262945		-1.07786
0.217876		0.0652976		-0.894377
0.180847		0.0754003		-1.0068
0.142724		0.205763		-0.943908
-1.19954		0.979102		-0.165265
-1.21154		1.00893		-0.0319105
-1.2812		0.983137		-0.127596
0.946383		0.683354		-1.0652
0.899447		0.781083		-1.10032
-1.15528		1.10489		0.104311
-1.18242		0.962274		0.114505
-1.26272		1.09779		0.15828
-1.2749		1.09401		0.00411262
0.858833		0.687516		-1.03867
0.879505		0.708973		-1.18839
0.931024		0.854367		-1.02416
0.847696		0.748823		-0.991268
0.916722		0.894369		-1.10268
1.074		1.19289		-1.503
1.04361		1.24074		-1.36937
0.996584		1.12271		-1.53403
0.949014		1.19378		-1.4943
1.0974		1.23375		-1.56941
-1.13822		0.894943		0.0475084
-1.20619		0.906679		-0.0413501
-1.16922		0.801734		-0.0547118
-1.21981		0.891424		0.0922996
1.12729		1.12897		-1.58797
0.252007		0.163629		-0.810373
0.342572		0.0817507		-0.818315
0.354889		0.193208		-0.888806
0.442028		0.0657307		-1.07776
-1.79692		0.640751		0.111096
-1.68341		0.742508		0.17829
-1.80689		0.71298		0.234699
-1.70922		0.612491		0.195934
-1.67348		0.506975		0.174324
-1.58958		0.483102		0.127189
-1.56805		0.592751		0.133993
-1.56359		0.497237		0.239762
0.263896		1.31435		-0.807465
0.283139		1.26481		-0.733895
-0.438528		0.0608042		-0.532258
-0.54557		0.0899584		-0.639644
-0.502369		0.121334		-0.544573
1.13904		0.647864		-1.25017
1.01725		0.665264		-1.19549
1.11654		0.582729		-1.159
1.18044		0.633406		-1.34132
1.27249		0.697211		-1.28532
1.26203		0.618395		-1.23438
1.21249		0.53084		-1.21838
-0.0219732		0.328743		-0.850692
0.12105		0.335036		-0.780382
0.0475348		0.293942		-0.740943
0.0796033		0.409546		-0.706357
1.21848		1.01599		-1.63228
1.28639		1.063		-1.68176
1.27818		1.14852		-1.65418
0.173211		0.988741		-0.827706
0.238122		0.919542		-0.853827
0.305075		0.916941		-0.935526
0.359562		0.895595		-0.785529
0.173588		0.857565		-0.854897
0.302669		0.845734		-0.868518
0.229407		0.899532		-0.751302
-1.66597		0.588978		0.288407
-1.77145		0.528325		0.216973
-1.65068		0.500195		0.279552
0.111051		0.916812		-0.751015
-0.177961		0.607015		-0.794494
-0.0753985		0.58293		-0.811292
-1.77124		0.515992		-0.0560765
-1.73735		0.580242		-0.0366649
-1.71168		0.503234		0.0671539
-1.65161		0.541426		-0.0701487
0.810641		0.325892		-1.28252
0.778602		0.417902		-1.39423
0.676786		0.420034		-1.33329
0.840056		0.415668		-1.30039
0.729059		0.328695		-1.3756
0.825332		0.510894		-1.41772
0.879517		0.416448		-1.45179
0.768489		0.481998		-1.27357
0.901591		0.357024		-1.33397
-1.98907		0.121341		0.283164
-1.9621		0.176597		0.355511
-2.02204		0.334064		0.154093
-1.98568		0.28238		0.342685
-2.06579		0.26456		0.225874
-1.40016		0.925675		0.0536309
-1.32867		0.900897		0.143046
-1.49984		0.898184		0.115083
-1.47372		0.807033		0.0858004
-1.71261		0.446117		-0.0441814
0.453332		0.166036		-0.930262
0.479155		0.26231		-0.989924
-1.5948		0.649823		0.271047
-1.55281		0.581104		0.237217
0.444075		0.0801712		-0.871339
0.431618		0.122736		-0.776105
0.412964		0.294697		-0.938223
0.618972		0.181847		-0.901795
1.13455		1.24218		-1.23993
1.1987		1.31347		-1.27218
1.20652		1.22684		-1.30068
1.07225		1.31594		-1.30818
1.10406		1.38055		-1.23945
1.0129		1.34688		-1.43302
1.04903		1.42178		-1.3258
1.07078		1.26638		-1.17224
1.0508		1.3434		-1.17841
-1.82748		0.744514		0.0125677
-1.76452		0.772502		-0.0403736
-1.72223		0.766972		0.0778701
-1.70652		0.654815		0.0779142
0.9463		1.26545		-1.41853
1.01996		1.24744		-1.25957
-1.71528		0.967334		0.262212
-1.67474		0.989714		0.178658
-1.651		0.916002		0.284009
-1.77139		0.952941		0.108173
-1.64441		0.999515		0.286896
-1.68939		0.962491		0.361573
1.35049		0.952288		-1.61387
0.0713095		0.1726		-0.883734
-0.0152074		0.264149		-0.967347
-0.055968		0.220328		-0.903445
0.0294274		0.261609		-0.857788
-1.03883		1.42317		0.0659643
-0.0432852		0.0878667		-0.916394
0.00612111		0.137724		-0.818698
0.137054		0.280814		-0.920595
-0.774256		1.26097		-0.100787
0.161355		0.209687		-0.788656
0.0617866		0.20359		-0.730219
0.106489		0.0674832		-0.822374
0.0790437		0.0763879		-0.950815
0.173665		0.411505		-0.862311
-0.00455388		0.42512		-0.872486
-0.0335045		0.429459		-0.965139
0.170587		0.356828		-0.929701
1.27777		1.21335		-1.21398
1.28866		1.307		-1.19635
1.32188		1.40279		-1.27902
1.19033		1.40861		-1.3425
0.0619668		1.13166		-0.850044
0.110415		1.08324		-0.924348
0.0861141		1.1702		-1.03037
0.185001		1.11506		-0.969708
-1.80514		1.13065		0.121404
-1.71587		1.16727		0.0956156
-1.74378		1.18293		0.212875
-1.74287		1.23407		-0.0348179
-1.89891		1.15749		0.0253263
-1.75558		1.13519		-0.0283884
-1.36664		0.503704		0.0335714
-1.37835		0.606063		0.0433555
-1.3575		0.583864		0.160161
-1.26099		0.603273		0.137689
0.696989		0.636063		-1.21732
0.723533		0.575143		-1.28625
1.09424		0.786455		-1.50305
1.11492		0.690451		-1.45201
1.12819		0.737147		-1.59927
0.955812		0.721063		-1.47292
0.985852		0.78901		-1.54284
1.02248		0.658448		-1.55091
0.956348		0.817869		-1.48776
-1.139		1.36375		0.123796
1.13147		0.827949		-1.57931
-1.13827		0.0876537		-0.309028
-0.878685		0.138672		-0.177818
-0.960515		0.0726551		-0.215007
-1.05768		0.0718456		-0.171328
-1.74347		0.445959		0.140799
-1.71214		0.381353		0.0686158
-1.84019		0.445778		0.00339353
-1.77302		0.415301		0.227813
-1.67021		0.393991		0.171296
-1.7998		0.370447		0.112752
-1.52165		1.42158		-0.0566736
-1.62607		1.42354		-0.0193843
-1.35491		0.699185		0.147405
-1.45998		0.778318		0.211272
-1.44575		0.706687		0.18456
-1.65068		1.32092		-0.0877168
-1.49087		0.568463		0.095138
-1.45699		0.585426		0.206512
-1.45917		0.505477		0.202749
1.17929		1.07226		-1.30034
0.109399		0.695696		-0.825657
0.0529306		0.685785		-0.917477
-0.0171595		0.597497		-0.874487
-0.654139		0.54262		-0.599112
-0.525108		0.543957		-0.556487
-0.656087		0.634128		-0.621456
-1.20757		1.42556		0.0710299
1.57606		1.00497		-1.74641
1.63891		0.910346		-1.68867
0.260616		0.250852		-0.861468
0.370367		0.187925		-0.752544
0.30311		0.242459		-0.749464
0.233843		0.0818021		-0.760693
0.280961		0.0886523		-0.697603
-1.84677		0.302096		0.0789556
-1.74797		0.307558		0.0861354
-1.84103		0.266976		-0.00496659
-1.74618		0.352746		-0.0535272
-1.82412		0.310373		0.24629
-1.93036		0.341432		0.161287
-1.9289		0.255645		0.0442633
-1.48908		0.552249		-0.0240735
-1.90364		0.344192		0.0199506
1.39577		1.30078		-1.33203
-1.37382		0.622484		-0.0887671
-1.28052		0.568116		-0.00370675
-1.36319		0.460603		-0.0928559
-1.2748		0.521213		-0.137081
1.33576		0.495825		-1.39964
-1.29186		0.472171		-0.00516398
-1.31973		0.374961		0.0101472
-1.24994		0.387525		0.100872
-1.28692		0.465385		0.156273
-2.01471		0.961757		0.333784
-2.02592		1.02734		0.228799
-1.93417		1.01193		0.353774
-1.97486		0.957782		0.250386
-1.97697		0.85058		0.247427
-2.0237		0.870262		0.153815
-1.94101		0.954836		0.158851
-2.11692		0.940837		0.249926
-2.00824		0.861463		0.334886
-2.06808		0.8712		0.237166
-1.88246		0.944736		0.264341
-1.23131		0.368861		-0.0511978
-1.20071		0.474033		0.0949934
-1.58609		0.840792		0.0214297
-1.67183		0.748611		-0.00715367
-1.64254		0.773465		-0.10326
-1.57758		0.731505		0.00492897
-1.66333		0.817557		0.0600057
-1.61748		0.641343		-0.08363
-1.60407		0.706783		0.150369
-1.69039		0.83154		-0.0638289
-1.72415		0.668361		-0.0574139
-0.693511		0.959804		-0.483684
-0.559244		0.993743		-0.382833
-0.603985		0.934818		-0.48745
-0.584867		1.03707		-0.489297
1.45018		1.11194		-1.76331
1.52361		1.11266		-1.72487
1.39111		1.08201		-1.72079
1.45905		1.00929		-1.77
-0.673099		0.957608		-0.586762
-0.665163		0.86851		-0.457147
-0.657329		0.935221		-0.332563
-0.751672		0.882176		-0.406265
-0.674203		1.05566		-0.444568
-0.767442		0.981905		-0.401196
-0.722325		1.03672		-0.544564
1.19025		0.439459		-1.37409
1.38138		0.572634		-1.40688
1.39141		0.833982		-1.36752
1.48943		0.84408		-1.36153
1.41272		0.820153		-1.44753
1.45083		0.749533		-1.33448
1.35042		0.864287		-1.29922
-0.456258		1.32771		-0.488961
-0.515681		1.31071		-0.571971
-0.463229		1.19991		-0.420194
-0.469318		1.22613		-0.552919
-2.02255		0.742693		0.326616
-2.09616		0.795634		0.285257
-2.11346		0.669076		0.285119
-2.04161		0.683149		0.219775
-2.00867		0.784467		0.186326
-1.95712		0.675634		0.376845
-1.98763		0.760272		0.452025
-2.07799		0.678118		0.390504
0.240455		0.434048		-0.979192
0.219433		0.329854		-0.816048
0.203639		0.397804		-0.761851
1.73441		0.808086		-1.70094
1.40509		0.780476		-1.6329
0.825163		0.661258		-1.28313
0.86964		0.603853		-1.17244
0.671242		0.651078		-1.35384
0.615731		0.540379		-1.31853
0.533695		0.608232		-1.25386
0.0417831		1.05467		-0.878719
-0.0595643		0.97802		-0.827095
0.0582744		0.967338		-0.883253
0.10312		1.02583		-0.760594
-0.0446561		0.904417		-0.786831
-0.0342528		0.979367		-0.710596
0.0471731		0.919781		-0.676227
0.0704615		0.99679		-0.662978
0.0564116		1.08559		-0.689688
0.499051		0.700267		-1.2174
0.419859		0.677465		-1.05893
0.561788		0.71369		-0.879646
0.670551		0.692577		-0.911446
1.22402		1.15084		-1.19438
-0.188051		0.400794		-0.604521
-0.321728		0.430533		-0.789697
-0.308967		0.363685		-0.825595
-0.324925		0.368011		-0.672835
-0.213982		0.358082		-0.722795
-0.220285		0.414769		-0.888189
-1.1456		1.42259		0.120722
-0.450077		1.30467		-0.717579
-0.468525		1.39969		-0.716607
-1.83487		0.402117		0.35633
-1.85601		0.298773		0.363657
-0.454185		1.41767		-0.531576
-0.521465		1.4157		-0.57647
-0.557471		1.3267		-0.667835
-1.97824		1.04039		0.0719374
-2.03069		0.967383		0.155581
-1.95982		1.32539		0.350889
-2.07053		1.27128		0.409437
-2.04774		1.20128		0.399781
-2.12201		1.03849		0.275942
-2.14168		0.980151		0.191099
-2.04345		1.09074		0.062532
-2.10016		0.971914		0.309429
-2.03404		1.43604		0.256014
-2.13521		1.45504		0.307206
-2.10155		1.3732		0.323109
1.25039		1.3634		-1.65654
1.28484		1.41702		-1.55264
1.14484		1.29678		-1.60025
1.23497		1.29258		-1.65082
1.33131		1.34924		-1.70186
1.34764		1.39195		-1.6218
0.649768		0.259917		-1.20502
0.478252		0.335237		-1.09725
0.539388		0.341994		-0.987903
-2.16138		1.44149		0.185365
0.132792		1.17746		-0.57647
0.207323		1.04886		-0.593119
0.108713		1.06607		-0.568702
0.0501657		1.11524		-0.56031
-2.14286		1.29073		0.165583
1.23777		0.165502		-1.40066
1.15718		0.197973		-1.35169
1.13105		0.199144		-1.48244
1.13813		0.074465		-1.45885
1.20589		0.261657		-1.3942
1.22095		0.196447		-1.53301
1.33344		0.174916		-1.28474
1.29733		0.0572434		-1.35072
1.32109		0.137282		-1.47109
1.27417		0.216988		-1.33929
1.27283		0.100606		-1.25652
1.23824		0.0744508		-1.51412
1.19264		0.0785247		-1.40052
-1.85824		0.66651		0.260631
-1.87293		0.749357		0.391109
-1.81802		0.675973		0.374871
-1.82005		0.762536		0.306031
-1.24463		1.35991		0.165957
-1.94164		0.735677		0.168098
-1.88074		0.831256		0.269852
-1.76493		0.789928		0.223129
-1.78673		0.754364		0.389679
-1.82822		0.827683		0.369751
1.62908		0.491271		-1.6527
1.7623		0.544368		-1.66172
1.77407		0.456631		-1.62863
1.7387		0.477139		-1.73787
1.66363		0.526478		-1.55772
1.64435		0.533748		-1.75362
0.980339		0.149761		-1.18093
0.889779		0.132789		-1.24717
0.943251		0.0700152		-1.15581
0.994525		0.135676		-1.29694
1.04755		0.0737731		-1.20967
0.969754		0.250974		-1.24164
1.06114		0.191525		-1.28584
1.08001		0.183363		-1.13795
-0.162326		0.235728		-0.492255
-0.224554		0.177312		-0.515061
-0.210965		0.296444		-0.467746
-0.212626		0.245323		-0.591997
-0.305803		0.232297		-0.552457
-0.342981		0.295512		-0.396498
-0.3939		0.221886		-0.498288
-0.316661		0.197562		-0.421114
-0.384082		0.27213		-0.63286
-0.232588		0.322499		-0.582042
-0.271101		0.252927		-0.694789
-2.01692		0.0893288		0.123431
-2.0987		0.0735944		0.164527
-1.92284		0.0776155		0.266105
-0.576145		0.248391		-0.528722
-0.635147		0.248053		-0.629234
-0.556185		0.260051		-0.682805
-0.406507		0.262884		-0.745928
-0.480958		0.186965		-0.649535
-0.460404		0.345767		-0.739669
-0.497081		0.232931		-0.572902
-0.776541		1.26134		-0.247382
-0.693216		1.20652		-0.299314
-0.620572		1.28267		-0.206237
-0.793684		1.36132		-0.263045
1.03237		0.206995		-1.43759
1.06946		0.187478		-1.59558
1.07214		0.0760103		-1.50987
0.00792111		1.13852		-0.95756
0.0140043		1.06076		-0.985417
0.148659		1.01333		-0.982553
-1.30803		1.42778		0.115503
0.882993		0.59239		-1.47007
0.77207		0.643402		-1.39949
-1.96247		1.1493		0.0695545
-0.912711		1.13569		-0.313415
-1.06371		1.14222		-0.37878
-0.970743		1.19615		-0.341814
-0.995424		1.30973		-0.318914
-0.880316		1.2346		-0.329685
-1.80454		1.12401		0.231171
-1.82013		1.15679		0.386498
-1.75702		1.09714		0.334189
-0.943982		1.21577		-0.449914
-1.03215		1.24544		-0.381487
-0.966528		1.13588		-0.438921
1.16647		0.4243		-1.28153
1.11865		0.3965		-1.16478
1.09166		0.492683		-1.1641
1.12673		0.323687		-1.33406
1.21338		0.540623		-1.36137
1.20207		0.348121		-1.22615
1.06071		0.377613		-1.29382
-1.87339		1.05106		0.135258
0.93366		0.0629034		-1.31731
-1.6514		1.13572		-0.0730485
1.0514		0.0779768		-1.36664
0.961782		0.0820132		-1.46698
-1.81169		1.02737		0.233543
-1.85713		0.952606		0.139393
1.00845		0.587019		-1.09796
-0.881472		1.32191		-0.173555
-0.854598		1.42931		-0.279248
-0.862913		1.31192		-0.352134
-0.829989		1.41993		-0.144442
-2.14318		0.280483		0.0985304
-2.15456		0.374586		0.0918679
-2.13864		0.308033		0.181076
-0.903203		1.42514		-0.354675
1.48606		0.603297		-1.48605
-2.11631		0.406141		0.297973
-2.08023		0.327851		0.390109
-2.0407		0.395994		0.402067
1.54389		0.641152		-1.54547
-1.99482		0.36934		0.455309
-1.06613		0.0857006		-0.424457
-1.90463		0.268697		0.418308
-1.8886		0.355538		0.417916
-0.15618		1.29893		-0.564055
-0.088361		1.21053		-0.631515
-0.255759		1.32157		-0.515828
-0.280308		1.42183		-0.566628
-0.170039		1.2042		-0.584558
1.58292		0.930447		-1.76883
1.46132		0.917716		-1.7714
1.60009		0.867588		-1.87653
1.65691		0.905248		-1.81507
1.09817		1.16463		-1.28327
1.05404		1.42134		-1.44368
0.952605		0.944355		-1.52568
0.907134		0.888327		-1.48498
0.955331		0.973672		-1.43038
-1.24906		1.42525		0.168383
1.3325		0.696635		-1.3854
-2.17271		0.246295		0.158554
1.58866		1.16688		-1.66981
1.6575		1.22497		-1.59692
1.50781		1.19763		-1.59982
1.6326		1.17568		-1.77371
1.47861		1.16745		-1.69039
-1.94335		0.468269		0.165137
-1.97635		0.365132		0.0670053
-1.98385		0.470957		0.0663396
-1.91937		0.428016		0.0462664
-1.74108		0.711042		0.324471
1.35349		1.41113		-1.35483
-2.06409		0.751393		0.0794338
-1.98988		0.767594		0.0739268
-0.0850335		0.258896		-0.714028
-0.153215		0.194203		-0.792231
-0.0544295		0.258456		-0.824264
-0.0841873		0.132723		-0.805484
-0.00900408		0.256652		-0.657686
-0.158919		0.184281		-0.648588
-0.0860774		0.13747		-0.703143
-0.0231571		0.159474		-0.634802
-0.0265292		0.341839		-0.701213
-1.65255		0.717323		0.27724
-0.132048		0.317244		-0.644161
-0.178725		0.267849		-0.769458
-0.107007		0.341114		-0.799635
-0.0626788		0.210948		-0.569472
-0.0308516		1.2821		-0.495459
-0.0381314		1.36412		-0.472503
-0.107656		1.41648		-0.524019
0.0750419		1.21969		-0.567954
-0.0233083		1.19412		-0.534175
-0.911701		0.564442		-0.202643
-0.899695		0.551053		-0.338861
-0.983593		0.551414		-0.29307
-0.885601		0.47074		-0.218627
-0.954973		0.538325		-0.43663
-0.927665		0.630832		-0.447959
-1.02588		0.629436		-0.391037
-1.91012		0.827399		0.415057
-1.91188		0.927274		0.413588
-1.79941		0.607102		0.236168
-1.85539		0.719747		0.137821
-1.99909		1.32125		0.0524898
-1.93209		0.848476		0.163914
-1.80134		0.844378		0.114418
-1.9141		0.802885		0.0447519
-1.5927		0.327907		0.138815
-1.72215		0.295119		0.19685
0.975832		0.307517		-1.31823
0.869352		0.263608		-1.25604
0.932579		0.255695		-1.36388
1.06446		0.308516		-1.14878
0.963607		0.374652		-1.22808
1.05164		0.274031		-1.29584
-1.41335		1.42478		0.16376
1.05413		0.294742		-1.4273
0.995277		0.355591		-1.39531
0.844661		0.195394		-1.32505
0.739563		0.199721		-1.27488
0.744511		0.276509		-1.25458
1.53759		0.446452		-1.55593
1.37094		0.304864		-1.66406
0.46733		0.322417		-0.833763
0.452596		0.433381		-0.945007
1.04951		0.350027		-1.55569
0.934511		0.324073		-1.48538
0.980845		0.42895		-1.54614
0.349066		0.379079		-1.03904
0.447156		0.361331		-1.00416
0.436362		0.428522		-1.07025
1.22173		0.264122		-1.24478
1.11366		0.247806		-1.19804
0.343747		0.279946		-1.03573
1.27547		0.257513		-1.67836
-1.62073		0.346498		0.026883
-1.56528		0.234487		0.200195
0.999419		1.25289		-1.52472
1.07457		1.37393		-1.55491
-1.02372		1.03939		-0.0640351
-0.978058		1.12008		-0.140752
-1.10646		1.08363		-0.0896158
-1.04218		1.10405		0.0101661
-0.957941		1.04252		0.0310789
-0.942691		1.11121		-0.016469
-1.07879		0.977941		-0.0963649
-1.06841		1.07307		-0.231367
-1.04944		0.995511		0.00763725
0.81427		0.751814		-1.41544
0.710656		0.718294		-1.35323
-1.81316		0.0794848		0.0652071
0.770615		0.0744453		-1.34275
0.854382		0.0831392		-1.41244
0.942126		0.166463		-1.41758
0.91446		0.0993547		-1.53345
0.819965		0.196555		-1.47469
-1.35153		1.42476		0.216098
-0.463439		0.613365		-0.570402
-0.557815		0.635523		-0.673263
-0.550729		0.6678		-0.589742
-0.604687		0.706789		-0.501381
-0.482559		0.738539		-0.564373
-0.666827		0.73625		-0.617736
-0.451274		0.717336		-0.691201
-0.410923		0.704812		-0.59552
0.2044		0.78328		-0.798226
0.129908		0.852342		-0.699841
0.104482		0.78158		-0.762881
0.954066		0.494566		-1.07417
0.0214036		0.835907		-0.837395
0.193144		0.681109		-0.875952
1.77055		1.10574		-1.47395
1.75819		1.12828		-1.59137
1.69255		1.11519		-1.50232
1.81928		0.992109		-1.50757
-1.45288		0.914261		-0.0998409
-1.49715		0.846929		-0.0208864
-1.47196		0.978403		-0.0256795
-1.55664		0.950026		-0.123892
-1.4424		0.977436		-0.175775
-1.36594		0.862403		-0.0911036
-1.43522		0.786561		-0.169351
-1.45462		0.902065		-0.19144
-1.37431		0.95094		-0.0855367
-1.67159		0.0785289		0.146502
-1.55263		0.0839325		0.00698538
-1.14899		1.1566		-0.334367
-1.18682		1.26516		-0.165686
-1.18245		1.15945		-0.179581
-1.22458		1.25324		-0.263011
-1.08207		1.15912		-0.221485
-1.25923		1.16273		-0.278897
-0.130397		0.0692743		-0.583318
-0.120528		0.170258		-0.488781
-0.144576		0.0688379		-0.726201
0.334791		0.47588		-1.02996
0.419748		0.533559		-0.935792
0.339551		0.509491		-1.1521
0.419661		0.518205		-1.05441
-0.0316499		1.04085		-0.642111
-0.109783		1.09614		-0.60185
-0.115155		1.17369		-0.45584
-0.201765		1.12379		-0.558995
-0.0401708		0.0950066		-0.517251
0.0308784		0.177315		-0.568222
-0.302806		1.0823		-0.510329
-0.32242		1.13227		-0.634279
1.63205		0.652098		-1.47254
1.64407		0.636873		-1.58506
1.33344		0.605638		-1.31798
1.44449		0.63046		-1.33916
1.48539		0.56327		-1.35889
1.44972		0.444115		-1.35437
1.36798		0.512547		-1.29216
-0.126516		0.562616		-0.470442
-0.014308		0.386105		-0.539908
-0.0263308		0.500127		-0.523715
0.063044		0.471295		-0.587403
-0.117994		0.843739		-0.817569
-0.164712		0.842845		-0.913428
-0.232543		0.863804		-0.810568
-0.122024		0.907731		-0.873166
-0.0100134		0.858144		-0.976659
-1.45855		1.36131		0.258096
-1.46128		1.42753		0.264382
1.43083		0.350047		-1.44999
1.53		0.390794		-1.38112
1.58269		0.473038		-1.41543
-0.701397		0.218029		-0.339009
0.107855		0.900088		-0.612716
-0.708008		0.62606		-0.561738
-0.855904		0.639703		-0.517456
0.279766		0.796005		-0.722919
0.139445		0.787048		-0.649461
0.195385		0.896309		-0.649466
-0.743066		0.679744		-0.569601
1.64228		0.23734		-1.4663
1.52189		0.276078		-1.43075
1.58265		0.104825		-1.41297
1.47908		0.0538577		-1.46666
-0.548875		0.687972		-0.390006
-0.480244		0.782483		-0.431174
-0.657868		0.77702		-0.459961
-0.595133		0.813866		-0.359978
0.0428691		1.06825		-0.78036
-0.0708625		1.06978		-0.824102
-1.49094		0.740363		-0.0256391
-1.40895		0.757946		-0.0668053
-1.3829		0.827371		0.0476701
-1.46701		0.674195		0.0782841
-1.48851		0.652339		-0.0286562
-1.38289		0.726596		0.0422056
-0.350989		0.689718		-0.494388
-0.343814		0.762924		-0.374919
-0.510579		0.306891		-0.430714
-0.448073		0.156393		-0.453075
-0.596861		0.293563		-0.388246
-0.559839		0.160711		-0.396669
-0.589708		0.156191		-0.544279
1.34914		0.260537		-1.31378
1.42507		0.182836		-1.34661
1.22974		0.180619		-1.22851
-0.148344		0.499071		-0.897288
-0.125212		0.412069		-0.922796
-0.116802		0.408295		-0.762774
0.462442		0.806687		-1.19214
0.557482		0.719868		-1.28074
-0.0297248		0.0829067		-0.721205
-0.0243784		0.0755296		-0.620409
0.0230554		0.254702		-0.55663
-0.0592592		0.296617		-0.545885
0.0689165		0.0888724		-0.579277
-0.365223		0.802405		-0.490079
1.55565		1.26771		-1.72855
1.74233		1.1958		-1.54668
1.54066		1.22043		-1.51313
1.63672		1.245		-1.66383
0.202464		0.448511		-0.686511
0.301157		0.404093		-0.73033
0.162194		0.350943		-0.667204
0.267288		0.330783		-0.718769
-1.27873		1.3299		0.0271691
-1.44308		1.4265		0.0679661
-0.133279		0.140609		-0.953671
-0.370294		0.593611		-0.495818
-0.0717314		0.358011		-0.951023
-0.13351		0.260986		-0.912957
1.30107		1.14226		-1.25447
1.29599		1.03905		-1.27068
1.37784		1.08706		-1.29029
1.44547		1.30528		-1.43148
-0.552802		0.0670738		-0.454673
-0.658528		0.269853		-0.484351
0.808109		0.89317		-1.04091
0.748522		0.917073		-0.968091
-0.628231		0.0791875		-0.568171
-0.646547		0.0779867		-0.483029
-0.66878		0.170344		-0.659038
1.59504		1.10046		-1.76098
-1.48765		0.46044		0.260184
-1.46271		0.383303		0.198841
-1.55152		0.410803		0.240335
1.5068		1.13774		-1.81175
1.59384		1.16105		-1.87632
1.58502		1.0277		-1.85679
1.66894		1.01393		-1.81868
-1.1024		0.903954		-0.0887487
-1.15877		0.888357		-0.188842
-1.12293		0.979032		-0.207521
-1.22945		1.05778		-0.272199
-1.1717		1.07414		-0.185108
-1.27486		0.880855		-0.134589
-1.25094		0.957508		-0.257099
0.577183		0.108024		-0.868204
0.403841		0.246251		-0.817264
0.549918		0.0809765		-1.09011
-0.313647		0.0626514		-0.466524
-0.208827		0.0669709		-0.515701
1.20495		0.771545		-1.23464
-0.595038		0.71008		-0.242179
-0.651529		0.702439		-0.338605
-0.471932		0.653447		-0.267312
-1.15923		1.28592		-0.0586583
-1.24942		1.34464		-0.28017
-0.961		1.33879		-0.445948
-0.040024		1.24974		-0.938817
-2.11253		0.27053		0.308821
-2.15026		0.393047		0.194747
-0.429724		0.811029		-0.590461
-0.474498		0.794718		-0.689219
-0.425483		0.867289		-0.715638
-0.566603		0.837808		-0.511367
-0.482212		0.881119		-0.570896
-0.404086		0.894517		-0.467408
-0.360467		0.882424		-0.61173
-0.522385		0.861366		-0.686726
-0.586457		0.800066		-0.637283
-0.675633		1.12932		-0.58948
-0.68231		1.16263		-0.436131
-0.579913		1.14153		-0.493512
-0.772938		1.12513		-0.532793
-0.7596		1.06931		-0.399148
-0.691644		1.08811		-0.299257
-0.592939		1.08511		-0.351127
1.31052		0.945911		-1.25427
1.22312		0.947939		-1.2069
1.23236		0.861653		-1.20334
1.28541		0.803672		-1.27631
-0.409869		1.08269		-0.457488
-0.420002		1.15861		-0.576862
-0.316802		0.980559		-0.514695
-0.451551		0.991086		-0.431084
-1.98787		1.38644		0.295044
-0.694655		0.800646		-0.304548
-0.631798		0.824047		-0.182148
-0.690319		0.717916		-0.185421
-1.09339		0.613514		-0.229129
-1.91874		1.43107		0.273885
0.464931		0.0816808		-1.17914
1.50542		1.04268		-1.81165
1.39745		1.38055		-1.25428
1.35405		1.2132		-1.27317
1.45155		0.265603		-1.36139
1.47954		0.0975903		-1.35643
1.36785		0.0697999		-1.53069
1.38688		0.0689995		-1.39153
-2.10851		1.18726		0.322717
1.31343		0.191426		-1.58798
1.23917		0.277778		-1.5541
1.51472		1.33128		-1.68712
1.43801		1.35162		-1.62687
1.51451		1.28762		-1.59621
1.47483		1.37588		-1.54501
1.40731		1.33075		-1.74499
1.40814		1.24856		-1.64422
1.64855		0.406659		-1.55885
1.68839		0.394681		-1.64793
0.310537		0.781114		-0.938916
0.380064		0.817371		-1.06603
0.270739		0.78537		-1.05253
1.66606		1.09628		-1.80557
1.51504		0.945392		-1.82853
-0.217571		0.255887		-0.874052
-0.274792		0.199478		-0.863966
-0.320868		0.263752		-0.796646
-0.374469		0.198404		-0.813169
-0.726456		0.47901		-0.175906
-2.13412		0.112053		0.0845204
1.59755		1.31542		-1.59388
0.68444		0.0676607		-1.2782
0.789895		0.0660551		-1.22637
0.559652		0.0834582		-1.24503
0.656982		0.539379		-0.919584
1.12465		0.153396		-1.6539
1.14895		0.0872722		-1.58776
1.09216		0.275221		-1.59113
0.572745		0.164511		-1.3407
0.519876		0.153235		-1.26691
-1.15993		0.169522		-0.379176
-1.16599		0.263684		-0.358228
-0.977454		0.282012		-0.175657
-1.98169		0.646773		0.0755603
-1.8645		0.460663		0.132475
-1.80094		0.544411		0.111489
-1.91872		0.524437		0.0433858
-1.85443		0.581567		-0.00829468
1.57255		0.702324		-1.39073
1.56867		0.543973		-1.57108
1.63367		0.541215		-1.46409
-0.514357		0.78857		-0.278562
-0.435102		0.727481		-0.288481
-0.712355		0.697007		-0.439328
1.73269		0.341387		-1.48871
-0.408406		0.672197		-0.339648
-0.658559		0.397116		-0.335098
-0.719289		0.323868		-0.315657
-0.641158		0.383463		-0.227561
-0.687259		0.339615		-0.463959
-1.45334		0.542815		-0.165657
-1.32451		0.64217		-0.229111
-1.31191		0.712609		-0.114219
-1.27054		0.615248		-0.147099
-1.26882		0.693121		-0.0144525
-1.41		1.09719		0.0662465
-1.51635		1.1168		0.114393
-1.46976		1.07638		-0.0336948
-1.4678		0.998329		0.0894498
-1.58334		0.988146		0.138969
-1.46019		0.930328		0.244733
-1.36263		0.999896		0.0314793
-1.56482		1.07058		0.0211838
-1.60836		0.955067		0.0328436
-1.29997		0.828726		0.000947079
-1.51093		0.634386		-0.14168
-1.44569		0.699023		-0.176217
-1.35003		0.714665		-0.219208
-1.42359		0.630443		-0.187074
-1.29936		0.793816		-0.125915
-1.53826		0.759689		-0.145822
-0.389937		0.547039		-0.619178
-0.352776		0.642901		-0.631558
-0.42236		0.636912		-0.764808
-0.271549		0.580774		-0.548095
0.221921		0.286107		-0.681629
0.118025		0.274066		-0.635671
-1.18266		0.554818		-0.175111
-1.19879		0.666563		-0.177807
-1.16444		0.67963		-0.0692385
-1.06677		0.600915		-0.116308
0.806699		0.250899		-1.01156
0.63818		0.0776951		-0.989748
0.593237		0.255514		-1.29607
0.966857		0.312509		-1.10091
-0.857037		0.453159		-0.359377
-0.857606		0.461362		-0.531995
0.656418		0.765247		-0.880432
0.744545		0.847784		-0.930533
0.600024		0.895999		-0.928878
0.76254		0.738025		-0.957651
0.587268		0.900143		-1.02722
1.44905		1.1224		-1.32798
-1.27802		0.283795		0.13262
-1.53213		0.459825		-0.145608
-1.67937		1.04439		0.363271
-1.75784		0.991629		0.338355
-0.959925		0.840988		-0.295572
-1.23887		0.719384		-0.270972
-1.17522		0.788569		-0.183724
-1.18175		0.779882		-0.300803
-1.05305		0.37416		-0.00491966
-0.940901		0.379409		-0.0472365
-1.07964		0.37164		-0.105814
-0.976593		0.462527		-0.00385878
-0.992742		0.503795		-0.167701
-1.07266		0.427164		-0.248965
-1.11007		0.521792		-0.229517
-1.05421		0.538485		-0.381937
-1.04035		0.471327		-0.416333
-1.42006		1.06001		-0.176916
-1.35486		0.992051		-0.213291
0.0156222		0.179546		-1.04036
-1.1145		0.343071		-0.212918
-1.19864		0.272996		-0.191398
-0.87689		0.461537		-0.0738074
-0.850381		0.373641		-0.108552
-0.798664		0.475316		-0.130298
-1.15942		0.355921		-0.365646
-0.754064		0.163999		-0.281323
-0.801727		0.0643678		-0.185359
-1.56038		1.36211		0.30401
-0.854212		0.539482		-0.491492
-0.545876		0.382432		-0.259902
-0.442338		0.374797		-0.344984
-1.82288		1.41967		0.079589
-1.29949		0.193843		-0.186827
-1.36243		1.27475		0.0395468
-1.29654		0.927486		0.00891466
-1.31964		1.01003		0.138078
-1.57664		1.43077		0.343344
1.19687		0.693407		-1.63186
1.18645		0.578359		-1.63108
1.10134		0.636165		-1.61827
0.178592		0.115578		-0.64987
-1.50531		0.465403		-0.0273095
-1.62821		0.448962		-0.0866857
-1.60406		0.468171		0.0234429
-1.56351		0.550371		-0.121283
-1.56279		0.384475		-0.136459
-1.39803		0.37199		-0.0855772
-1.52605		0.35013		-0.023254
-1.481		0.488913		0.103059
-1.52162		0.404572		0.105424
-1.41603		0.400787		0.0520585
-1.82633		0.581707		0.362836
-2.14567		0.58585		0.166364
-2.13754		0.50342		0.182985
-2.06492		0.519464		0.0583644
-1.77937		1.0328		0.10354
-1.77405		1.20513		0.343668
-2.10886		0.534145		0.30806
-2.05791		0.511318		0.392549
-0.384566		0.370089		-0.771892
-0.263499		0.771893		-0.850755
-0.139127		0.780593		-0.873968
-0.070071		0.741883		-0.966147
-0.0171854		1.13294		-0.652113
0.000402761		1.09074		-0.495369
-1.54978		1.05172		-0.133618
-1.54567		1.15227		-0.132658
1.08798		0.587827		-1.56052
1.46494		0.539603		-1.77072
-1.61373		0.875037		-0.0833116
-1.51772		0.878691		-0.136814
-0.336887		1.10307		-0.359163
-0.37015		1.16789		-0.474598
-0.249986		1.18598		-0.416281
-0.244309		1.11918		-0.384031
-1.05902		1.04146		0.0831612
-1.12877		0.978366		0.0371245
-0.365302		0.577453		-0.79972
-0.369265		0.514201		-0.763311
0.317888		0.321951		-0.88894
0.354192		0.309933		-0.754441
-1.1963		0.502321		-0.052453
-1.20088		0.595526		-0.0484513
-1.09445		0.501366		-0.106146
-1.04815		0.575557		0.0013353
-1.1481		0.578413		0.0528302
-1.08762		0.464813		0.0440737
-1.55564		0.813802		0.134621
-1.53791		0.782717		0.23809
-1.53282		0.700367		0.236037
-1.66611		0.833956		0.176216
-1.83119		1.02361		0.366285
-0.3735		1.00651		-0.752656
-2.15013		0.885823		0.163512
-1.93018		0.888022		0.0427782
0.615675		0.438755		-0.910264
0.664129		0.355454		-0.949858
0.518127		0.265368		-0.868252
0.485374		0.636223		-0.839863
0.566317		0.527246		-0.867972
1.36482		0.0648023		-1.66734
1.20303		1.09985		-1.61308
-1.56115		0.915892		0.250159
-1.62014		0.90741		0.146887
0.303119		1.41447		-0.752906
0.257067		1.41262		-0.641377
0.307249		1.31371		-0.67253
0.237959		1.25051		-0.623159
0.151637		1.23747		-0.594652
0.143261		1.31338		-0.567886
0.12703		1.41548		-0.695854
1.79951		0.140957		-1.53486
-2.06113		0.676117		0.0659377
0.928422		0.505204		-1.47867
0.717133		0.507683		-1.3953
0.727862		0.159673		-1.4281
0.792293		0.25489		-1.40245
0.891298		0.25416		-1.46862
-1.89442		0.578478		0.412324
0.874677		0.83307		-1.31248
0.850906		0.908813		-1.42745
0.793247		0.906691		-1.34446
1.19495		0.0572529		-1.29426
-1.71039		0.57322		0.34901
-0.0132847		0.972993		-0.613262
-0.568441		1.13889		-0.662355
1.52893		1.17962		-1.39941
-0.244455		0.987051		-0.41461
0.294507		1.16147		-0.654812
-0.694538		0.813305		-0.571048
-0.205396		1.4157		-0.46541
-0.281129		0.850615		-0.372225
-0.391529		0.836098		-0.340641
-0.339471		0.921541		-0.33157
-0.210202		1.27105		-0.424191
-0.142515		1.32728		-0.420435
-0.05279		1.13603		-0.903688
-0.00467867		1.42536		-0.900868
0.732136		0.64113		-0.957563
1.38894		0.911713		-1.74862
1.29477		0.31407		-1.72368
1.26702		0.196931		-1.71003
-0.257335		0.665892		-0.846897
-0.350392		0.68714		-0.758059
-0.515256		1.42499		-0.453802
1.78318		0.895415		-1.57961
1.52938		1.21294		-1.80995
1.22745		0.152204		-1.63165
-2.06434		0.422235		0.0824726
-2.04864		0.327063		0.0652361
-0.23709		0.121845		-0.412772
-0.238375		0.24201		-0.39987
0.885404		0.158314		-1.02961
0.988741		0.157645		-1.08145
1.00903		0.23316		-1.14166
-0.658187		0.343875		-0.625967
-0.718131		0.460142		-0.57253
-1.49023		0.327042		0.0902042
-1.42764		0.214318		0.183719
-1.35373		0.235753		0.106833
-1.37851		0.289834		0.0303876
-1.35968		0.311187		0.149041
-1.55103		0.695222		-0.121613
-1.59682		0.618826		0.0246949
-0.5644		1.22977		-0.648494
-0.342925		1.18405		-0.358667
-2.07674		1.03199		0.387793
-1.89933		1.0682		0.423177
-1.58379		0.552327		0.317276
1.05053		1.29602		-1.56679
-0.414127		0.45376		-0.768237
-1.52569		1.27746		0.250478
0.270415		0.330966		-0.998192
0.212674		0.320011		-1.13465
0.0877411		0.376537		-1.06157
0.0725285		0.44624		-1.01733
1.68688		1.27194		-1.52985
1.65472		1.15378		-1.41262
-0.779109		1.16878		-0.255145
0.994559		0.278828		-1.54694
0.966867		0.194228		-1.54748
1.01629		0.126792		-1.58282
-0.322493		0.985118		-0.376835
-0.403457		1.00031		-0.325094
-1.67648		1.43824		0.383201
-1.79327		1.42726		0.298333
0.640482		0.18856		-1.38085
0.698224		0.264899		-1.35201
0.749051		0.629818		-1.11002
0.810628		0.592279		-0.993134
-2.14649		0.686362		0.161596
-1.00581		0.672584		0.0167432
-0.739413		0.378928		-0.173485
-0.556634		0.271892		-0.252753
-0.633472		0.309865		-0.233902
-1.32697		1.17803		0.0291775
-1.20532		1.20771		-0.0209702
-0.287349		0.655419		-0.386044
-1.35346		1.10944		0.16394
-0.876177		0.272103		-0.0670194
-1.00073		0.404837		-0.158876
-0.949872		0.220198		-0.112151
-0.808383		0.209085		-0.133276
-0.713472		0.213632		-0.20087
-0.734467		0.125616		-0.139623
-0.833347		0.127219		-0.0787452
-0.838107		0.577536		-0.111104
-0.736		0.580577		-0.166892
-0.790234		0.826522		-0.248089
0.0879208		0.26608		-1.03145
-1.61415		1.07936		0.159172
-1.55956		1.08757		0.247509
-1.10304		1.27617		0.0646193
-0.927327		1.05845		-0.429183
-2.16249		0.199696		0.0999608
0.201422		1.42444		-0.956535
-2.17856		0.154389		0.14625
0.149448		1.34516		-1.01506
-1.85213		1.2091		0.380171
1.50883		1.38493		-1.44136
-1.81787		1.04713		0.0128585
-0.567902		0.175973		-0.705488
-0.263684		0.340658		-0.394123
-1.68892		1.06979		0.0634592
-2.16764		0.475566		0.0981383
1.66393		0.359955		-1.85623
-0.13627		0.336567		-0.50496
-0.259042		0.733364		-0.368606
-0.19803		0.678551		-0.441642
-0.180649		0.322618		-0.913391
-0.15322		1.16337		-0.852087
0.115838		0.70647		-0.602116
0.24497		0.735508		-0.665139
-0.469432		0.549298		-0.711732
0.70201		0.430554		-0.965104
0.743706		0.533539		-0.953721
1.28009		0.517095		-1.27929
1.44318		1.227		-1.77454
1.54522		1.35064		-1.34022
1.12489		1.05137		-1.56163
-1.35348		0.829478		0.191572
0.984217		1.17925		-1.34398
1.00466		1.11037		-1.28794
1.01098		0.947694		-1.27203
0.379427		0.413608		-1.17628
0.0294746		0.971873		-1.00403
-1.05843		0.967765		-0.364489
-1.13499		1.04672		-0.33757
-0.944028		0.579558		-0.0570946
0.899987		1.43247		-1.45703
0.108245		0.528354		-1.03882
0.0461907		0.616133		-1.00018
-0.069413		0.542873		-0.962
0.111354		0.417336		-0.585496
0.047933		0.352494		-0.606032
-2.01708		0.0683538		0.387121
-1.28737		0.367001		-0.140799
-0.423081		1.41894		-0.62865
-0.234422		0.561048		-0.426091
-1.10229		1.1799		-0.0829505
-0.972019		1.21177		-0.140183
-1.46072		0.273235		0.218658
-1.67394		0.892801		0.0598384
-0.812072		1.14891		-0.3755
-0.779655		1.22983		-0.386749
-1.3677		0.379682		-0.245193
-1.33635		0.472684		-0.256463
-0.182388		0.681563		-0.894436
1.13548		0.513196		-1.61172
0.414137		0.195176		-1.25593
-0.391177		0.467005		-0.344322
-0.341385		0.568773		-0.379836
-1.26862		0.0690277		0.148759
-1.24767		0.133331		0.141237
-1.62214		1.04676		-0.0916434
0.307054		0.686209		-0.716884
-1.70596		0.983401		0.0649481
-0.116775		1.24485		-0.480618
-0.985013		1.26012		0.0101174
0.946153		1.40595		-1.39454
-1.99506		0.134784		0.454376
-0.935136		1.34185		0.00819575
-0.908924		1.42054		-0.0881024
-1.97943		0.889111		0.0553716
-2.05854		1.03942		0.475376
-2.05207		1.13631		0.475308
-1.58191		0.062983		0.321419
-1.70375		0.071479		0.351217
-1.37375		0.746376		0.225447
-1.25609		0.757189		0.172135
0.29126		0.686874		-0.853971
0.163799		0.700755		-0.748237
-0.633659		1.11014		-0.191172
-0.529713		1.12074		-0.217299
1.21678		0.88883		-1.61713
-1.34317		1.16764		-0.234542
-1.14443		0.822916		0.0877861
-1.23435		0.813909		0.0903284
1.13539		0.947946		-1.57159
-0.303459		1.42416		-0.411093
-0.412351		0.205479		-0.358982
1.6395		0.84162		-1.44073
1.72087		0.799508		-1.45714
-1.56738		0.846635		0.311616
-2.05837		0.237699		0.472244
1.72959		0.0509678		-1.59801
0.324001		0.188621		-1.19441
0.907405		0.244509		-1.09669
1.36609		0.680693		-1.29652
1.35342		0.769334		-1.28199
1.09445		1.38165		-1.09413
1.17174		1.34522		-1.13953
-1.73996		1.07313		-0.0416934
-1.72152		0.973123		-0.0469652
1.34198		0.803964		-1.72062
1.38113		1.00441		-1.74078
1.29911		0.914977		-1.7057
1.24353		0.859318		-1.67867
1.63698		1.09592		-1.42528
-1.81936		0.980327		-0.00701894
0.462531		0.897995		-1.00545
-0.130283		0.652484		-0.474728
0.0172768		0.565908		-0.680992
-0.394968		1.3485		-0.403288
-0.241564		1.35172		-0.367672
-0.277501		1.2574		-0.354909
0.137941		1.32684		-0.902586
0.435129		0.592788		-1.19784
0.397813		0.723379		-1.19483
0.587782		0.647878		-0.879209
0.291443		0.263686		-1.13262
0.339213		0.323785		-1.18199
0.550961		0.447246		-0.851406
0.611671		0.362014		-0.870419
-1.97857		0.981427		0.0419262
1.62945		1.03134		-1.4311
-0.29947		0.814058		-0.801188
-0.374834		0.797986		-0.771427
-0.330748		0.871163		-0.76782
1.16732		1.21377		-1.60327
1.55367		0.894515		-1.39102
1.55087		1.07916		-1.3829
-0.228575		0.0395397		-0.40419
-1.65029		0.806497		0.28692
1.34989		1.27297		-1.71836
1.31792		1.20911		-1.68519
1.74437		0.621129		-1.69698
1.81065		0.721384		-1.55594
1.47913		1.34739		-1.80451
-1.63638		0.279045		-0.105379
-1.65497		0.364116		-0.0816345
-1.9927		0.474113		0.449232
-2.04661		0.599689		0.39728
1.01067		1.35433		-1.26833
-1.55666		0.999577		0.246193
-1.44237		1.0239		0.222398
1.0401		1.41644		-1.19044
0.982441		1.40969		-1.50927
0.993422		1.4345		-1.25812
0.227071		0.565887		-0.65882
-0.836666		0.771762		-0.106966
0.369474		0.784039		-0.742801
0.475424		0.786945		-0.776521
0.942159		1.32086		-1.49206
-0.789691		0.909441		-0.120363
0.52236		0.864162		-1.28032
0.393162		0.91103		-0.901966
-0.831193		1.04506		-0.519129
-0.85896		1.17825		-0.497551
1.19583		1.40098		-1.22663
1.28773		0.0688442		-1.60842
-0.125569		0.604321		-0.911419
0.140789		0.986042		-0.578364
0.0268646		0.918145		-0.542073
0.0409478		1.03145		-0.557487
-1.64972		0.966504		-0.0681891
-1.75972		0.888945		-0.0227955
-1.11763		0.869632		-0.356454
-1.25384		0.869646		-0.288756
-1.1666		0.955984		-0.322046
-1.14821		1.32784		-0.340861
-1.98101		0.598429		0.447347
1.24144		1.2215		-1.6419
1.19771		1.16464		-1.61763
1.43828		1.19994		-1.30923
1.48723		1.26496		-1.32138
-1.85184		0.167329		-0.0235055
-1.55152		0.287305		-0.150891
-1.55384		0.173837		-0.169655
1.57423		0.79531		-1.39793
-1.44843		0.17181		-0.213492
-1.3753		0.653449		0.220152
-1.46396		0.645581		0.266014
0.493378		0.24185		-1.27631
0.835222		0.324875		-1.4451
0.125284		0.524833		-0.604305
0.083032		0.607008		-0.699435
0.459576		0.540676		-0.825895
0.43737		0.41829		-0.787819
0.153269		0.626344		-0.728346
-1.16036		0.0803032		-0.102205
-1.57054		0.320399		0.262248
1.15763		0.98325		-1.14833
-1.69146		0.325579		0.341733
-1.0377		0.141635		-0.0925078
-0.940571		0.12923		-0.0280672
-0.44263		0.906079		-0.316887
-0.562082		0.904015		-0.375207
-0.551855		0.723259		-0.656843
1.21595		1.04948		-1.18197
1.09256		0.956364		-1.20284
-0.853462		0.849383		-0.336891
-0.859519		0.946567		-0.33941
-1.9099		0.982701		0.045077
-0.890664		0.798864		-0.462046
-0.921314		0.874856		-0.435623
-0.589499		0.913236		-0.236899
-0.519398		0.858318		-0.265116
-1.55447		1.33343		-0.144003
-2.06152		0.980919		0.0632137
-2.14776		1.07431		0.195563
-2.10746		0.875869		0.315808
-1.95001		0.719511		0.0318929
0.310172		0.921122		-1.04293
-2.14772		0.772592		0.20831
0.896055		0.593952		-1.04215
-1.93705		0.173509		0.0102513
0.496024		0.903399		-0.895736
-2.1262		0.799081		0.0904184
-2.05618		0.811715		0.393522
-1.99225		0.84002		0.454711
-2.04863		0.905456		0.400487
0.291725		0.909231		-0.670767
0.273488		0.719054		-1.12118
-1.22175		0.627336		-0.282985
0.121084		0.606984		-0.603413
0.254233		1.42617		-0.859449
0.474695		0.86693		-0.785993
0.147976		1.42709		-1.04605
0.587803		0.889005		-0.839417
-0.440372		0.296746		-0.342478
-0.642558		0.148567		-0.310937
-1.36509		0.074768		-0.0115056
-1.54482		0.0759296		0.19195
0.269767		0.414176		-1.14801
0.0287909		1.26546		-0.997159
-1.04292		0.926813		0.0412876
-0.616564		0.866619		-0.630598
0.37067		0.419075		-0.90713
-0.0184747		0.617815		-0.980849
0.0432166		0.683062		-1.03649
0.22831		1.36469		-0.883918
0.113189		1.42774		-0.935381
1.67896		0.138905		-1.46677
-1.78661		0.350582		0.400505
-1.77036		0.301926		0.349015
-1.74414		0.394896		0.331665
-0.801803		1.08263		-0.243521
-0.735067		1.11362		-0.133973
-0.63938		1.1875		-0.20739
1.23016		0.0772287		-1.70436
1.61089		0.334656		-1.4692
-0.642135		1.03954		-0.609996
-1.66803		0.576054		0.0630736
-1.27772		0.957152		0.165301
1.79147		0.803783		-1.58922
1.39171		0.369564		-1.31812
1.34437		0.431936		-1.29946
1.25686		0.453303		-1.23444
1.30366		0.366462		-1.25974
0.530366		0.183347		-0.842524
0.691221		0.129552		-0.918939
1.50668		0.566694		-1.8395
1.61425		0.0600195		-1.91248
0.632362		0.327378		-1.32693
0.214849		0.177319		-1.14659
0.531434		0.32734		-1.27835
0.152473		1.22042		-0.979878
-0.827885		1.25224		-0.500721
-0.76933		1.31752		-0.445361
1.28931		0.411987		-1.70528
1.18731		0.431736		-1.6566
-0.151496		1.41841		-0.421254
0.789344		0.0972709		-0.982792
-0.750697		1.39112		-0.552723
-0.630464		1.41866		-0.525903
-0.525887		1.35647		-0.205127
-1.35671		0.954237		0.221754
0.543412		0.781609		-0.828661
-0.341826		0.1232		-0.361475
-1.13774		0.724764		-0.32635
0.88761		0.840877		-1.20355
1.19262		0.248525		-1.64679
0.081509		1.26516		-0.527812
-0.0337594		1.32903		-0.960236
0.026379		1.38223		-0.987558
-0.118908		1.09854		-0.915499
-1.98537		0.94313		0.453734
-2.04177		1.09929		0.398817
-1.99469		1.05925		0.457184
-1.82978		0.917596		0.367446
-0.334244		1.42112		-0.305714
-0.628467		1.35652		-0.153791
-0.526523		1.42145		-0.200508
0.284929		0.786182		-1.15579
-0.0986327		0.762235		-0.466812
-0.0293863		0.619819		-0.514459
-0.785973		1.42822		-0.455135
-0.241505		1.42446		-0.358583
0.0439555		0.64892		-0.591719
-0.0403683		0.698586		-0.52655
-1.15258		1.18742		0.0635063
-1.17435		1.11966		-0.0475924
-1.01703		0.873629		-0.404221
0.432959		0.700615		-0.806987
-1.2364		0.723252		0.0910814
0.123619		0.185928		-0.613015
0.0589999		0.0855497		-0.671965
0.214196		0.870696		-1.10857
1.02078		0.402607		-1.13528
-1.35761		0.0829102		-0.187469
-0.0828684		0.663824		-0.959672
1.13586		0.120691		-1.16552
-0.530376		1.19348		-0.243831
-1.13656		0.637761		-0.346653
-0.874606		1.39101		-0.481627
-0.817376		1.31444		-0.524418
-1.15887		0.552081		-0.335137
-1.14626		0.473584		-0.364096
1.83747		0.0463713		-1.56726
1.37907		0.0897761		-1.30989
-0.74315		1.35607		-0.0967441
-1.21506		0.21319		0.0826014
-1.34951		0.147115		0.18196
1.13183		0.352064		-1.62864
-0.701759		1.28084		-0.170421
0.0292187		0.567881		-0.559083
1.78041		0.34984		-1.6423
-1.17508		0.429836		-0.198281
-0.763706		0.762608		-0.109161
-0.754022		0.786124		-0.412339
-0.82147		0.86474		-0.523795
-0.739878		0.866957		-0.534276
-0.795665		0.96561		-0.508921
1.56119		0.675425		-1.86609
1.79322		0.748865		-1.50225
1.752		0.898321		-1.46957
-0.449164		1.18303		-0.301437
-0.511024		1.11643		-0.401583
1.78623		0.592489		-1.58946
-1.63809		0.417663		0.27865
1.79422		0.278066		-1.53006
1.73398		0.44654		-1.48198
-1.74178		0.513798		0.329945
-1.80622		0.471198		0.386079
-1.6723		0.744676		0.351797
1.71116		0.713734		-1.46625
1.74945		0.552108		-1.48691
-0.0954959		1.38624		-0.922323
-1.18987		0.657955		0.0790587
-1.12379		0.714116		0.0462935
-1.14724		0.226529		0.000128456
-1.02013		0.235439		0.0106321
-0.10916		0.985048		-0.916848
-0.0440668		0.953722		-0.933342
-0.198438		1.09926		-0.887972
-1.27113		0.194685		-0.315016
-0.336868		0.713903		-0.822697
-0.707243		0.0635446		-0.249531
-0.629331		0.124342		-0.196316
-0.621201		0.204445		-0.236308
-0.509331		0.207168		-0.302128
-0.530194		0.123224		-0.249218
-0.598644		0.060307		-0.305917
-1.67302		0.658067		0.361471
-0.0482703		1.03865		-0.930066
1.7109		0.616969		-1.47475
1.79408		0.0479198		-1.64412
1.5834		0.596602		-1.40065
1.60936		0.419483		-1.46802
-0.47154		0.962879		-0.259989
-0.439765		1.10248		-0.313582
-1.05911		1.18668		0.024766
-0.102949		0.428995		-0.491601
1.73917		0.0522828		-1.74442
0.0131395		0.5031		-1.01808
1.52919		0.228404		-1.8698
1.47417		0.329083		-1.36926
-1.35576		0.17052		-0.274231
-1.3453		0.293515		-0.264273
-1.27119		0.265975		-0.14101
-1.3507		0.242607		-0.0997079
1.44168		0.82477		-1.77119
1.20315		0.493694		-1.64961
0.490617		0.498585		-1.23827
-0.387419		1.26705		-0.311652
-0.429871		1.35629		-0.257739
0.212946		0.632254		-0.66184
0.461503		0.413114		-1.27275
-0.35242		1.14643		-0.759601
0.161205		0.46647		-1.08836
1.67411		0.0541336		-1.85779
0.0354755		0.326264		-1.0071
-1.25912		0.332368		-0.30218
-1.21926		0.256949		-0.301248
-0.858121		0.729178		-0.358273
-0.816488		0.771518		-0.532556
1.19063		0.713528		-1.17624
0.0907048		0.853423		-1.0419
-1.31785		1.05286		-0.224461
-1.25345		0.538342		-0.27157
-1.15365		0.381534		0.0425294
-0.465039		0.202308		-0.760702
-1.37124		0.807654		-0.221436
-1.34165		0.924724		-0.234929
-2.10104		1.1576		0.0819309
-2.14321		1.23795		0.0985298
-1.03268		1.03302		-0.390962
1.23076		0.325588		-1.69006
1.59253		0.292617		-1.89606
-1.35147		0.539989		-0.221183
-1.03642		0.816416		0.0106495
-1.24214		0.143725		0.0160332
-2.1773		0.0584951		0.175852
-2.06692		0.0687163		0.254257
-1.05283		0.296144		-0.0101674
-0.903806		0.0656958		-0.127794
-1.35087		0.0760655		0.106144
-0.836588		0.69824		-0.481857
-0.74485		0.993842		-0.285781
-1.27903		0.786421		-0.27124
1.39132		1.15796		-1.72692
-2.06876		1.26935		0.0732563
-2.13851		1.18557		0.192063
-1.76593		1.36361		0.387949
-1.85307		1.28948		0.370454
-1.88033		1.36648		0.425437
-1.99558		0.23522		0.455078
-2.06082		0.842996		0.0724953
1.19991		0.769615		-1.64003
1.3856		1.15216		-1.28702
0.363358		0.621085		-0.912678
-0.96984		0.799958		-0.417615
-0.939061		0.727544		-0.43708
1.26452		0.734893		-1.66807
-1.15113		0.304117		0.0470524
-1.14702		0.134057		0.0816374
-0.749162		0.300059		-0.174316
-1.21142		0.0693194		0.0388275
-0.148275		0.087938		-0.859064
-1.45462		0.33527		-0.198906
-1.35612		0.393754		0.179337
-1.45706		0.0762107		0.0453659
-0.0659709		0.174573		-0.996165
-1.41225		0.260358		-0.192424
-1.03976		0.130292		0.033688
-0.37104		0.0528983		-0.345053
-0.436905		0.124405		-0.308212
-1.43551		0.453538		-0.184214
-1.24		0.0701027		-0.333313
-1.15413		0.0695478		0.091771
-1.00612		0.0638538		-0.0712768
-1.94969		1.15733		0.442064
-1.9972		1.23935		0.458734
-1.91913		1.26513		0.4246
-2.07141		0.195572		0.395816
-1.8386		0.868583		0.000918176
-2.20866		1.45505		0.123308
-1.83356		1.43531		-0.0105157
-1.82004		1.34531		-0.0241295
-0.955617		0.301192		-0.0608313
-2.05691		1.44859		0.50491
-1.78919		1.44418		0.416926
0.13582		0.0709194		-0.714349
-1.96786		1.45162		0.469293
-2.01319		1.43614		0.395893
0.240968		0.194039		-0.680222
-2.04967		0.941024		0.477096
-2.0596		0.752533		0.48147
-2.04872		0.838095		0.473799
-2.12072		0.903175		0.0895969
-0.878106		0.176079		-0.535562
-1.04163		0.725635		-0.390252
-0.943528		1.1808		-0.0424207
-0.842364		1.07332		-0.0770522
-2.06822		0.0489031		0.492726
-1.92082		0.0705077		0.355781
-1.5658		0.139973		0.285103
-1.45683		0.13632		0.242666
-0.33384		1.3559		-0.310519
-1.67247		0.446428		0.357503
-2.06494		0.655083		0.482523
-0.771678		0.661216		-0.10977
-0.624851		1.01621		-0.188091
-0.256574		1.03582		-0.345563
-1.05461		1.32125		-0.396204
0.364978		0.505635		-1.21693
-0.430338		1.4213		-0.25302
-1.10602		0.0668978		-0.0201439
-0.700251		1.00563		-0.174343
-2.08524		0.142347		0.327145
-0.466492		0.0536039		-0.291494
-0.503074		0.0621531		-0.354045
-0.896351		0.964995		-0.454549
-2.05581		1.33986		0.47819
-1.06668		0.756551		0.0664286
-0.84375		0.0648831		-0.075942
-0.746016		0.0621403		-0.131834
-1.97856		0.06181		0.457011
-0.714152		0.253926		-0.576582
-0.433307		0.828426		-0.253287
-1.05032		0.0680077		0.0370072
-2.10623		0.0557289		0.401957
-1.23527		0.472931		-0.310049
-1.93691		1.06275		0.0323768
0.389722		0.616305		-0.791226
-1.46851		1.10679		0.218672
-1.91155		1.43325		0.36495
-1.4678		0.0542347		0.268325
-1.36274		0.0525621		0.218333
1.09683		0.439725		-1.59726
-0.000454244		0.683157		-0.987213
-1.60312		1.26523		0.312168
-1.99048		1.37056		0.455482
-1.66426		1.36737		0.355229
-0.497053		1.42526		-0.305138
-1.844		0.661142		0.00608293
-0.977069		0.966288		-0.410489
-2.05383		1.23902		0.476431
-1.87512		0.0723034		0.41599
-2.12004		0.0543909		0.299125
-2.05085		0.43797		0.473122
-2.06946		0.150699		0.493618
-2.06377		0.348134		0.487296
-2.05038		0.538077		0.47319
-1.8782		1.44369		0.444576
-2.09089		1.4596		0.404922
-1.77828		0.0740723		0.384824
-0.400429		1.42488		-0.358239
-0.643767		0.0604609		-0.190904
-0.548548		0.0573021		-0.244376
-0.946827		0.0664661		-0.0189535
CELLS	21741	114017
8	711	622	637	630	3162	3073	3088	3081
8	47	46	625	628	1040	1041	3076	3079
8	50	49	618	687	1037	1038	3069	3138
8	652	608	107	108	3103	3059	1016	1015
8	680	700	653	652	3131	3151	3104	3103
8	52	51	629	619	1035	1036	3080	3070
8	651	5	644	102	3102	126	3095	967
8	54	53	709	616	1033	1034	3160	3067
8	101	100	646	647	968	969	3097	3098
8	57	56	615	676	1074	1075	3066	3127
8	611	693	707	685	3062	3144	3158	3136
8	89	602	90	599	931	3053	930	3050
8	593	659	594	660	3044	3110	3045	3111
8	77	640	78	639	846	3091	845	3090
8	81	601	82	592	939	3052	938	3043
8	656	639	601	671	3107	3090	3052	3122
8	65	64	621	627	1066	1067	3072	3078
8	65	631	0	630	1066	3082	130	3081
8	0	630	44	622	130	3081	1043	3073
8	603	698	66	67	3054	3149	857	856
8	713	654	692	655	3164	3105	3143	3106
8	618	687	668	665	3069	3138	3119	3116
8	48	47	626	625	1039	1040	3077	3076
8	77	76	640	633	846	847	3091	3084
8	601	81	656	80	3052	939	3107	940
8	706	696	613	695	3157	3147	3064	3146
8	691	611	615	57	3142	3062	3066	1074
8	656	80	79	3	3107	940	844	117
8	78	639	79	656	845	3090	844	3107
8	659	662	684	699	3110	3113	3135	3150
8	639	640	671	672	3090	3091	3122	3123
8	633	627	670	705	3084	3078	3121	3156
8	76	75	633	634	847	848	3084	3085
8	635	708	634	621	3086	3159	3085	3072
8	708	635	631	636	3159	3086	3082	3087
8	673	711	638	637	3124	3162	3089	3088
8	72	71	637	638	851	852	3088	3089
8	70	69	641	642	853	854	3092	3093
8	594	84	593	83	3045	936	3044	937
8	83	82	593	592	937	938	3044	3043
8	596	595	657	661	3047	3046	3108	3112
8	85	84	595	594	935	936	3046	3045
8	85	595	86	596	935	3046	934	3047
8	86	596	87	597	934	3047	933	3048
8	87	597	88	598	933	3048	932	3049
8	696	682	663	658	3147	3133	3114	3109
8	678	97	649	96	3129	972	3100	973
8	703	92	600	91	3154	928	3051	929
8	93	4	703	92	976	123	3154	928
8	655	103	651	5	3106	1000	3102	126
8	616	612	644	651	3067	3063	3095	3102
8	52	612	53	616	1035	3063	1034	3067
8	676	617	645	648	3127	3068	3096	3099
8	703	600	643	677	3154	3051	3094	3128
8	90	599	91	600	930	3050	929	3051
8	692	612	629	52	3143	3063	3080	1035
8	51	50	619	618	1036	1037	3070	3069
8	603	66	114	2	3054	857	1009	118
8	114	113	603	604	1009	1010	3054	3055
8	113	112	604	605	1010	1011	3055	3056
8	112	111	605	606	1011	1012	3056	3057
8	111	110	606	609	1012	1013	3057	3060
8	608	607	108	109	3059	3058	1015	1014
8	61	623	62	624	1070	3074	1069	3075
8	681	623	613	61	3132	3074	3064	1070
8	681	613	715	695	3132	3064	3166	3146
8	595	594	661	660	3046	3045	3112	3111
8	59	614	60	706	1072	3065	1071	3157
8	602	89	598	88	3053	931	3049	932
8	710	685	712	664	3161	3136	3163	3115
8	710	614	620	59	3161	3065	3071	1072
8	702	677	599	600	3153	3128	3050	3051
8	703	643	93	94	3154	3094	976	975
8	643	650	94	95	3094	3101	975	974
8	694	683	684	659	3145	3134	3135	3110
8	67	698	68	632	856	3149	855	3083
8	667	605	666	606	3118	3056	3117	3057
8	626	701	687	665	3077	3152	3138	3116
8	110	109	609	607	1013	1014	3060	3058
8	608	668	607	665	3059	3119	3058	3116
8	106	652	6	107	997	3103	129	1016
8	617	55	610	1	3068	1076	3061	135
8	676	56	617	55	3127	1075	3068	1076
8	709	610	54	1	3160	3061	1033	135
8	707	58	611	57	3158	1073	3062	1074
8	707	620	58	59	3158	3071	1073	1072
8	706	613	60	61	3157	3064	1071	1070
8	598	597	658	663	3049	3048	3109	3114
8	98	97	645	678	971	972	3096	3129
8	687	49	626	48	3138	1038	3077	1039
8	709	616	646	644	3160	3067	3097	3095
8	615	676	678	645	3066	3127	3129	3096
8	105	653	106	652	998	3104	997	3103
8	685	710	707	620	3136	3161	3158	3071
8	622	704	44	45	3073	3155	1043	1042
8	704	628	45	46	3155	3079	1042	1041
8	705	63	624	62	3156	1068	3075	1069
8	705	627	63	64	3156	3078	1068	1067
8	593	592	659	662	3044	3043	3110	3113
8	606	609	666	669	3057	3060	3117	3120
8	701	626	686	625	3152	3077	3137	3076
8	71	70	638	641	852	853	3089	3092
8	104	654	105	653	999	3105	998	3104
8	74	73	635	636	849	850	3086	3087
8	637	630	636	631	3088	3081	3087	3082
8	621	708	65	631	3072	3159	1066	3082
8	632	698	714	717	3083	3149	3165	3168
8	632	642	68	69	3083	3093	855	854
8	74	635	75	634	849	3086	848	3085
8	637	636	72	73	3088	3087	851	850
8	675	673	641	638	3126	3124	3092	3089
8	670	672	633	640	3121	3123	3084	3091
8	625	628	689	675	3076	3079	3140	3126
8	650	649	95	96	3101	3100	974	973
8	646	644	101	102	3097	3095	968	967
8	99	98	648	645	970	971	3099	3096
8	709	646	610	647	3160	3097	3061	3098
8	647	648	610	617	3098	3099	3061	3068
8	648	647	99	100	3099	3098	970	969
8	615	678	691	649	3066	3129	3142	3100
8	693	679	702	677	3144	3130	3153	3128
8	103	655	104	654	1000	3106	999	3105
8	713	692	680	629	3164	3143	3131	3080
8	651	612	655	692	3102	3063	3106	3143
8	592	601	662	671	3043	3052	3113	3122
8	657	663	596	597	3108	3114	3047	3048
8	658	664	598	602	3109	3115	3049	3053
8	659	683	660	716	3110	3134	3111	3167
8	715	695	661	657	3166	3146	3112	3108
8	702	599	664	602	3153	3050	3115	3053
8	607	665	609	669	3058	3116	3060	3120
8	665	701	669	666	3116	3152	3120	3117
8	688	604	667	605	3139	3055	3118	3056
8	688	698	604	603	3139	3149	3055	3054
8	714	674	632	642	3165	3125	3083	3093
8	633	634	627	621	3084	3085	3078	3072
8	624	690	705	670	3075	3141	3156	3121
8	670	690	672	699	3121	3141	3123	3150
8	622	711	704	673	3073	3162	3155	3124
8	641	642	675	674	3092	3093	3126	3125
8	625	689	686	697	3076	3140	3137	3148
8	628	704	675	673	3079	3155	3126	3124
8	679	650	677	643	3130	3101	3128	3094
8	691	649	679	650	3142	3100	3130	3101
8	700	680	619	629	3151	3131	3070	3080
8	668	608	700	652	3119	3059	3151	3103
8	694	623	683	681	3145	3074	3134	3132
8	683	681	716	715	3134	3132	3167	3166
8	614	710	682	712	3065	3161	3133	3163
8	706	614	696	682	3157	3065	3147	3133
8	690	624	694	623	3141	3075	3145	3074
8	684	699	694	690	3135	3150	3145	3141
8	667	666	686	701	3118	3117	3137	3152
8	688	667	697	686	3139	3118	3148	3137
8	714	689	674	675	3165	3140	3125	3126
8	679	693	691	611	3130	3144	3142	3062
8	664	685	702	693	3115	3136	3153	3144
8	663	657	696	695	3114	3108	3147	3146
8	717	697	714	689	3168	3148	3165	3140
8	662	671	699	672	3113	3122	3150	3123
8	664	658	712	682	3115	3109	3163	3133
8	619	618	700	668	3070	3069	3151	3119
8	680	653	713	654	3131	3104	3164	3105
8	660	716	661	715	3111	3167	3112	3166
8	697	717	688	698	3148	3168	3139	3149
8	3162	3073	3088	3081	3288	3199	3214	3207
8	1040	1041	3076	3079	1051	1052	3202	3205
8	1037	1038	3069	3138	1048	1049	3195	3264
8	3103	3059	1016	1015	3229	3185	1024	1023
8	3131	3151	3104	3103	3257	3277	3230	3229
8	1035	1036	3080	3070	1046	1047	3206	3196
8	3102	126	3095	967	3228	125	3221	977
8	1033	1034	3160	3067	1044	1045	3286	3193
8	968	969	3097	3098	978	979	3223	3224
8	1074	1075	3066	3127	1085	1086	3192	3253
8	3062	3144	3158	3136	3188	3270	3284	3262
8	931	3053	930	3050	944	3179	943	3176
8	3044	3110	3045	3111	3170	3236	3171	3237
8	846	3091	845	3090	860	3217	859	3216
8	939	3052	938	3043	952	3178	951	3169
8	3107	3090	3052	3122	3233	3216	3178	3248
8	1066	1067	3072	3078	1077	1078	3198	3204
8	1066	3082	130	3081	1077	3208	131	3207
8	130	3081	1043	3073	131	3207	1054	3199
8	3054	3149	857	856	3180	3275	871	870
8	3164	3105	3143	3106	3290	3231	3269	3232
8	3069	3138	3119	3116	3195	3264	3245	3242
8	1039	1040	3077	3076	1050	1051	3203	3202
8	846	847	3091	3084	860	861	3217	3210
8	3052	939	3107	940	3178	952	3233	953
8	3157	3147	3064	3146	3283	3273	3190	3272
8	3142	3062	3066	1074	3268	3188	3192	1085
8	3107	940	844	117	3233	953	858	116
8	845	3090	844	3107	859	3216	858	3233
8	3110	3113	3135	3150	3236	3239	3261	3276
8	3090	3091	3122	3123	3216	3217	3248	3249
8	3084	3078	3121	3156	3210	3204	3247	3282
8	847	848	3084	3085	861	862	3210	3211
8	3086	3159	3085	3072	3212	3285	3211	3198
8	3159	3086	3082	3087	3285	3212	3208	3213
8	3124	3162	3089	3088	3250	3288	3215	3214
8	851	852	3088	3089	865	866	3214	3215
8	853	854	3092	3093	867	868	3218	3219
8	3045	936	3044	937	3171	949	3170	950
8	937	938	3044	3043	950	951	3170	3169
8	3047	3046	3108	3112	3173	3172	3234	3238
8	935	936	3046	3045	948	949	3172	3171
8	935	3046	934	3047	948	3172	947	3173
8	934	3047	933	3048	947	3173	946	3174
8	933	3048	932	3049	946	3174	945	3175
8	3147	3133	3114	3109	3273	3259	3240	3235
8	3129	972	3100	973	3255	982	3226	983
8	3154	928	3051	929	3280	941	3177	942
8	976	123	3154	928	986	122	3280	941
8	3106	1000	3102	126	3232	1004	3228	125
8	3067	3063	3095	3102	3193	3189	3221	3228
8	1035	3063	1034	3067	1046	3189	1045	3193
8	3127	3068	3096	3099	3253	3194	3222	3225
8	3154	3051	3094	3128	3280	3177	3220	3254
8	930	3050	929	3051	943	3176	942	3177
8	3143	3063	3080	1035	3269	3189	3206	1046
8	1036	1037	3070	3069	1047	1048	3196	3195
8	3054	857	1009	118	3180	871	1017	119
8	1009	1010	3054	3055	1017	1018	3180	3181
8	1010	1011	3055	3056	1018	1019	3181	3182
8	1011	1012	3056	3057	1019	1020	3182	3183
8	1012	1013	3057	3060	1020	1021	3183	3186
8	3059	3058	1015	1014	3185	3184	1023	1022
8	1070	3074	1069	3075	1081	3200	1080	3201
8	3132	3074	3064	1070	3258	3200	3190	1081
8	3132	3064	3166	3146	3258	3190	3292	3272
8	3046	3045	3112	3111	3172	3171	3238	3237
8	1072	3065	1071	3157	1083	3191	1082	3283
8	3053	931	3049	932	3179	944	3175	945
8	3161	3136	3163	3115	3287	3262	3289	3241
8	3161	3065	3071	1072	3287	3191	3197	1083
8	3153	3128	3050	3051	3279	3254	3176	3177
8	3154	3094	976	975	3280	3220	986	985
8	3094	3101	975	974	3220	3227	985	984
8	3145	3134	3135	3110	3271	3260	3261	3236
8	856	3149	855	3083	870	3275	869	3209
8	3118	3056	3117	3057	3244	3182	3243	3183
8	3077	3152	3138	3116	3203	3278	3264	3242
8	1013	1014	3060	3058	1021	1022	3186	3184
8	3059	3119	3058	3116	3185	3245	3184	3242
8	997	3103	129	1016	1001	3229	128	1024
8	3068	1076	3061	135	3194	1087	3187	134
8	3127	1075	3068	1076	3253	1086	3194	1087
8	3160	3061	1033	135	3286	3187	1044	134
8	3158	1073	3062	1074	3284	1084	3188	1085
8	3158	3071	1073	1072	3284	3197	1084	1083
8	3157	3064	1071	1070	3283	3190	1082	1081
8	3049	3048	3109	3114	3175	3174	3235	3240
8	971	972	3096	3129	981	982	3222	3255
8	3138	1038	3077	1039	3264	1049	3203	1050
8	3160	3067	3097	3095	3286	3193	3223	3221
8	3066	3127	3129	3096	3192	3253	3255	3222
8	998	3104	997	3103	1002	3230	1001	3229
8	3136	3161	3158	3071	3262	3287	3284	3197
8	3073	3155	1043	1042	3199	3281	1054	1053
8	3155	3079	1042	1041	3281	3205	1053	1052
8	3156	1068	3075	1069	3282	1079	3201	1080
8	3156	3078	1068	1067	3282	3204	1079	1078
8	3044	3043	3110	3113	3170	3169	3236	3239
8	3057	3060	3117	3120	3183	3186	3243	3246
8	3152	3077	3137	3076	3278	3203	3263	3202
8	852	853	3089	3092	866	867	3215	3218
8	999	3105	998	3104	1003	3231	1002	3230
8	849	850	3086	3087	863	864	3212	3213
8	3088	3081	3087	3082	3214	3207	3213	3208
8	3072	3159	1066	3082	3198	3285	1077	3208
8	3083	3149	3165	3168	3209	3275	3291	3294
8	3083	3093	855	854	3209	3219	869	868
8	849	3086	848	3085	863	3212	862	3211
8	3088	3087	851	850	3214	3213	865	864
8	3126	3124	3092	3089	3252	3250	3218	3215
8	3121	3123	3084	3091	3247	3249	3210	3217
8	3076	3079	3140	3126	3202	3205	3266	3252
8	3101	3100	974	973	3227	3226	984	983
8	3097	3095	968	967	3223	3221	978	977
8	970	971	3099	3096	980	981	3225	3222
8	3160	3097	3061	3098	3286	3223	3187	3224
8	3098	3099	3061	3068	3224	3225	3187	3194
8	3099	3098	970	969	3225	3224	980	979
8	3066	3129	3142	3100	3192	3255	3268	3226
8	3144	3130	3153	3128	3270	3256	3279	3254
8	1000	3106	999	3105	1004	3232	1003	3231
8	3164	3143	3131	3080	3290	3269	3257	3206
8	3102	3063	3106	3143	3228	3189	3232	3269
8	3043	3052	3113	3122	3169	3178	3239	3248
8	3108	3114	3047	3048	3234	3240	3173	3174
8	3109	3115	3049	3053	3235	3241	3175	3179
8	3110	3134	3111	3167	3236	3260	3237	3293
8	3166	3146	3112	3108	3292	3272	3238	3234
8	3153	3050	3115	3053	3279	3176	3241	3179
8	3058	3116	3060	3120	3184	3242	3186	3246
8	3116	3152	3120	3117	3242	3278	3246	3243
8	3139	3055	3118	3056	3265	3181	3244	3182
8	3139	3149	3055	3054	3265	3275	3181	3180
8	3165	3125	3083	3093	3291	3251	3209	3219
8	3084	3085	3078	3072	3210	3211	3204	3198
8	3075	3141	3156	3121	3201	3267	3282	3247
8	3121	3141	3123	3150	3247	3267	3249	3276
8	3073	3162	3155	3124	3199	3288	3281	3250
8	3092	3093	3126	3125	3218	3219	3252	3251
8	3076	3140	3137	3148	3202	3266	3263	3274
8	3079	3155	3126	3124	3205	3281	3252	3250
8	3130	3101	3128	3094	3256	3227	3254	3220
8	3142	3100	3130	3101	3268	3226	3256	3227
8	3151	3131	3070	3080	3277	3257	3196	3206
8	3119	3059	3151	3103	3245	3185	3277	3229
8	3145	3074	3134	3132	3271	3200	3260	3258
8	3134	3132	3167	3166	3260	3258	3293	3292
8	3065	3161	3133	3163	3191	3287	3259	3289
8	3157	3065	3147	3133	3283	3191	3273	3259
8	3141	3075	3145	3074	3267	3201	3271	3200
8	3135	3150	3145	3141	3261	3276	3271	3267
8	3118	3117	3137	3152	3244	3243	3263	3278
8	3139	3118	3148	3137	3265	3244	3274	3263
8	3165	3140	3125	3126	3291	3266	3251	3252
8	3130	3144	3142	3062	3256	3270	3268	3188
8	3115	3136	3153	3144	3241	3262	3279	3270
8	3114	3108	3147	3146	3240	3234	3273	3272
8	3168	3148	3165	3140	3294	3274	3291	3266
8	3113	3122	3150	3123	3239	3248	3276	3249
8	3115	3109	3163	3133	3241	3235	3289	3259
8	3070	3069	3151	3119	3196	3195	3277	3245
8	3131	3104	3164	3105	3257	3230	3290	3231
8	3111	3167	3112	3166	3237	3293	3238	3292
8	3148	3168	3139	3149	3274	3294	3265	3275
8	3288	3199	3214	3207	3414	3325	3340	3333
8	1051	1052	3202	3205	1062	1063	3328	3331
8	1048	1049	3195	3264	1059	1060	3321	3390
8	3229	3185	1024	1023	3355	3311	1032	1031
8	3257	3277	3230	3229	3383	3403	3356	3355
8	1046	1047	3206	3196	1057	1058	3332	3322
8	3228	125	3221	977	3354	124	3347	987
8	1044	1045	3286	3193	1055	1056	3412	3319
8	978	979	3223	3224	988	989	3349	3350
8	1085	1086	3192	3253	1096	1097	3318	3379
8	3188	3270	3284	3262	3314	3396	3410	3388
8	944	3179	943	3176	957	3305	956	3302
8	3170	3236	3171	3237	3296	3362	3297	3363
8	860	3217	859	3216	874	3343	873	3342
8	952	3178	951	3169	965	3304	964	3295
8	3233	3216	3178	3248	3359	3342	3304	3374
8	1077	1078	3198	3204	1088	1089	3324	3330
8	1077	3208	131	3207	1088	3334	132	3333
8	131	3207	1054	3199	132	3333	1065	3325
8	3180	3275	871	870	3306	3401	885	884
8	3290	3231	3269	3232	3416	3357	3395	3358
8	3195	3264	3245	3242	3321	3390	3371	3368
8	1050	1051	3203	3202	1061	1062	3329	3328
8	860	861	3217	3210	874	875	3343	3336
8	3178	952	3233	953	3304	965	3359	966
8	3283	3273	3190	3272	3409	3399	3316	3398
8	3268	3188	3192	1085	3394	3314	3318	1096
8	3233	953	858	116	3359	966	872	115
8	859	3216	858	3233	873	3342	872	3359
8	3236	3239	3261	3276	3362	3365	3387	3402
8	3216	3217	3248	3249	3342	3343	3374	3375
8	3210	3204	3247	3282	3336	3330	3373	3408
8	861	862	3210	3211	875	876	3336	3337
8	3212	3285	3211	3198	3338	3411	3337	3324
8	3285	3212	3208	3213	3411	3338	3334	3339
8	3250	3288	3215	3214	3376	3414	3341	3340
8	865	866	3214	3215	879	880	3340	3341
8	867	868	3218	3219	881	882	3344	3345
8	3171	949	3170	950	3297	962	3296	963
8	950	951	3170	3169	963	964	3296	3295
8	3173	3172	3234	3238	3299	3298	3360	3364
8	948	949	3172	3171	961	962	3298	3297
8	948	3172	947	3173	961	3298	960	3299
8	947	3173	946	3174	960	3299	959	3300
8	946	3174	945	3175	959	3300	958	3301
8	3273	3259	3240	3235	3399	3385	3366	3361
8	3255	982	3226	983	3381	992	3352	993
8	3280	941	3177	942	3406	954	3303	955
8	986	122	3280	941	996	121	3406	954
8	3232	1004	3228	125	3358	1008	3354	124
8	3193	3189	3221	3228	3319	3315	3347	3354
8	1046	3189	1045	3193	1057	3315	1056	3319
8	3253	3194	3222	3225	3379	3320	3348	3351
8	3280	3177	3220	3254	3406	3303	3346	3380
8	943	3176	942	3177	956	3302	955	3303
8	3269	3189	3206	1046	3395	3315	3332	1057
8	1047	1048	3196	3195	1058	1059	3322	3321
8	3180	871	1017	119	3306	885	1025	120
8	1017	1018	3180	3181	1025	1026	3306	3307
8	1018	1019	3181	3182	1026	1027	3307	3308
8	1019	1020	3182	3183	1027	1028	3308	3309
8	1020	1021	3183	3186	1028	1029	3309	3312
8	3185	3184	1023	1022	3311	3310	1031	1030
8	1081	3200	1080	3201	1092	3326	1091	3327
8	3258	3200	3190	1081	3384	3326	3316	1092
8	3258	3190	3292	3272	3384	3316	3418	3398
8	3172	3171	3238	3237	3298	3297	3364	3363
8	1083	3191	1082	3283	1094	3317	1093	3409
8	3179	944	3175	945	3305	957	3301	958
8	3287	3262	3289	3241	3413	3388	3415	3367
8	3287	3191	3197	1083	3413	3317	3323	1094
8	3279	3254	3176	3177	3405	3380	3302	3303
8	3280	3220	986	985	3406	3346	996	995
8	3220	3227	985	984	3346	3353	995	994
8	3271	3260	3261	3236	3397	3386	3387	3362
8	870	3275	869	3209	884	3401	883	3335
8	3244	3182	3243	3183	3370	3308	3369	3309
8	3203	3278	3264	3242	3329	3404	3390	3368
8	1021	1022	3186	3184	1029	1030	3312	3310
8	3185	3245	3184	3242	3311	3371	3310	3368
8	1001	3229	128	1024	1005	3355	127	1032
8	3194	1087	3187	134	3320	1098	3313	133
8	3253	1086	3194	1087	3379	1097	3320	1098
8	3286	3187	1044	134	3412	3313	1055	133
8	3284	1084	3188	1085	3410	1095	3314	1096
8	3284	3197	1084	1083	3410	3323	1095	1094
8	3283	3190	1082	1081	3409	3316	1093	1092
8	3175	3174	3235	3240	3301	3300	3361	3366
8	981	982	3222	3255	991	992	3348	3381
8	3264	1049	3203	1050	3390	1060	3329	1061
8	3286	3193	3223	3221	3412	3319	3349	3347
8	3192	3253	3255	3222	3318	3379	3381	3348
8	1002	3230	1001	3229	1006	3356	1005	3355
8	3262	3287	3284	3197	3388	3413	3410	3323
8	3199	3281	1054	1053	3325	3407	1065	1064
8	3281	3205	1053	1052	3407	3331	1064	1063
8	3282	1079	3201	1080	3408	1090	3327	1091
8	3282	3204	1079	1078	3408	3330	1090	1089
8	3170	3169	3236	3239	3296	3295	3362	3365
8	3183	3186	3243	3246	3309	3312	3369	3372
8	3278	3203	3263	3202	3404	3329	3389	3328
8	866	867	3215	3218	880	881	3341	3344
8	1003	3231	1002	3230	1007	3357	1006	3356
8	863	864	3212	3213	877	878	3338	3339
8	3214	3207	3213	3208	3340	3333	3339	3334
8	3198	3285	1077	3208	3324	3411	1088	3334
8	3209	3275	3291	3294	3335	3401	3417	3420
8	3209	3219	869	868	3335	3345	883	882
8	863	3212	862	3211	877	3338	876	3337
8	3214	3213	865	864	3340	3339	879	878
8	3252	3250	3218	3215	3378	3376	3344	3341
8	3247	3249	3210	3217	3373	3375	3336	3343
8	3202	3205	3266	3252	3328	3331	3392	3378
8	3227	3226	984	983	3353	3352	994	993
8	3223	3221	978	977	3349	3347	988	987
8	980	981	3225	3222	990	991	3351	3348
8	3286	3223	3187	3224	3412	3349	3313	3350
8	3224	3225	3187	3194	3350	3351	3313	3320
8	3225	3224	980	979	3351	3350	990	989
8	3192	3255	3268	3226	3318	3381	3394	3352
8	3270	3256	3279	3254	3396	3382	3405	3380
8	1004	3232	1003	3231	1008	3358	1007	3357
8	3290	3269	3257	3206	3416	3395	3383	3332
8	3228	3189	3232	3269	3354	3315	3358	3395
8	3169	3178	3239	3248	3295	3304	3365	3374
8	3234	3240	3173	3174	3360	3366	3299	3300
8	3235	3241	3175	3179	3361	3367	3301	3305
8	3236	3260	3237	3293	3362	3386	3363	3419
8	3292	3272	3238	3234	3418	3398	3364	3360
8	3279	3176	3241	3179	3405	3302	3367	3305
8	3184	3242	3186	3246	3310	3368	3312	3372
8	3242	3278	3246	3243	3368	3404	3372	3369
8	3265	3181	3244	3182	3391	3307	3370	3308
8	3265	3275	3181	3180	3391	3401	3307	3306
8	3291	3251	3209	3219	3417	3377	3335	3345
8	3210	3211	3204	3198	3336	3337	3330	3324
8	3201	3267	3282	3247	3327	3393	3408	3373
8	3247	3267	3249	3276	3373	3393	3375	3402
8	3199	3288	3281	3250	3325	3414	3407	3376
8	3218	3219	3252	3251	3344	3345	3378	3377
8	3202	3266	3263	3274	3328	3392	3389	3400
8	3205	3281	3252	3250	3331	3407	3378	3376
8	3256	3227	3254	3220	3382	3353	3380	3346
8	3268	3226	3256	3227	3394	3352	3382	3353
8	3277	3257	3196	3206	3403	3383	3322	3332
8	3245	3185	3277	3229	3371	3311	3403	3355
8	3271	3200	3260	3258	3397	3326	3386	3384
8	3260	3258	3293	3292	3386	3384	3419	3418
8	3191	3287	3259	3289	3317	3413	3385	3415
8	3283	3191	3273	3259	3409	3317	3399	3385
8	3267	3201	3271	3200	3393	3327	3397	3326
8	3261	3276	3271	3267	3387	3402	3397	3393
8	3244	3243	3263	3278	3370	3369	3389	3404
8	3265	3244	3274	3263	3391	3370	3400	3389
8	3291	3266	3251	3252	3417	3392	3377	3378
8	3256	3270	3268	3188	3382	3396	3394	3314
8	3241	3262	3279	3270	3367	3388	3405	3396
8	3240	3234	3273	3272	3366	3360	3399	3398
8	3294	3274	3291	3266	3420	3400	3417	3392
8	3239	3248	3276	3249	3365	3374	3402	3375
8	3241	3235	3289	3259	3367	3361	3415	3385
8	3196	3195	3277	3245	3322	3321	3403	3371
8	3257	3230	3290	3231	3383	3356	3416	3357
8	3237	3293	3238	3292	3363	3419	3364	3418
8	3274	3294	3265	3275	3400	3420	3391	3401
8	3414	3325	3340	3333	837	748	763	756
8	1062	1063	3328	3331	192	193	751	754
8	1059	1060	3321	3390	189	190	744	813
8	3355	3311	1032	1031	778	734	143	142
8	3383	3403	3356	3355	806	826	779	778
8	1057	1058	3332	3322	187	188	755	745
8	3354	124	3347	987	777	9	770	148
8	1055	1056	3412	3319	185	186	835	742
8	988	989	3349	3350	149	150	772	773
8	1096	1097	3318	3379	204	205	741	802
8	3314	3396	3410	3388	737	819	833	811
8	957	3305	956	3302	161	728	160	725
8	3296	3362	3297	3363	719	785	720	786
8	874	3343	873	3342	173	766	172	765
8	965	3304	964	3295	169	727	168	718
8	3359	3342	3304	3374	782	765	727	797
8	1088	1089	3324	3330	196	197	747	753
8	1088	3334	132	3333	196	757	13	756
8	132	3333	1065	3325	13	756	195	748
8	3306	3401	885	884	729	824	184	183
8	3416	3357	3395	3358	839	780	818	781
8	3321	3390	3371	3368	744	813	794	791
8	1061	1062	3329	3328	191	192	752	751
8	874	875	3343	3336	173	174	766	759
8	3304	965	3359	966	727	169	782	170
8	3409	3399	3316	3398	832	822	739	821
8	3394	3314	3318	1096	817	737	741	204
8	3359	966	872	115	782	170	171	11
8	873	3342	872	3359	172	765	171	782
8	3362	3365	3387	3402	785	788	810	825
8	3342	3343	3374	3375	765	766	797	798
8	3336	3330	3373	3408	759	753	796	831
8	875	876	3336	3337	174	175	759	760
8	3338	3411	3337	3324	761	834	760	747
8	3411	3338	3334	3339	834	761	757	762
8	3376	3414	3341	3340	799	837	764	763
8	879	880	3340	3341	178	179	763	764
8	881	882	3344	3345	180	181	767	768
8	3297	962	3296	963	720	166	719	167
8	963	964	3296	3295	167	168	719	718
8	3299	3298	3360	3364	722	721	783	787
8	961	962	3298	3297	165	166	721	720
8	961	3298	960	3299	165	721	164	722
8	960	3299	959	3300	164	722	163	723
8	959	3300	958	3301	163	723	162	724
8	3399	3385	3366	3361	822	808	789	784
8	3381	992	3352	993	804	153	775	154
8	3406	954	3303	955	829	158	726	159
8	996	121	3406	954	157	10	829	158
8	3358	1008	3354	124	781	147	777	9
8	3319	3315	3347	3354	742	738	770	777
8	1057	3315	1056	3319	187	738	186	742
8	3379	3320	3348	3351	802	743	771	774
8	3406	3303	3346	3380	829	726	769	803
8	956	3302	955	3303	160	725	159	726
8	3395	3315	3332	1057	818	738	755	187
8	1058	1059	3322	3321	188	189	745	744
8	3306	885	1025	120	729	184	136	7
8	1025	1026	3306	3307	136	137	729	730
8	1026	1027	3307	3308	137	138	730	731
8	1027	1028	3308	3309	138	139	731	732
8	1028	1029	3309	3312	139	140	732	735
8	3311	3310	1031	1030	734	733	142	141
8	1092	3326	1091	3327	200	749	199	750
8	3384	3326	3316	1092	807	749	739	200
8	3384	3316	3418	3398	807	739	841	821
8	3298	3297	3364	3363	721	720	787	786
8	1094	3317	1093	3409	202	740	201	832
8	3305	957	3301	958	728	161	724	162
8	3413	3388	3415	3367	836	811	838	790
8	3413	3317	3323	1094	836	740	746	202
8	3405	3380	3302	3303	828	803	725	726
8	3406	3346	996	995	829	769	157	156
8	3346	3353	995	994	769	776	156	155
8	3397	3386	3387	3362	820	809	810	785
8	884	3401	883	3335	183	824	182	758
8	3370	3308	3369	3309	793	731	792	732
8	3329	3404	3390	3368	752	827	813	791
8	1029	1030	3312	3310	140	141	735	733
8	3311	3371	3310	3368	734	794	733	791
8	1005	3355	127	1032	144	778	8	143
8	3320	1098	3313	133	743	206	736	12
8	3379	1097	3320	1098	802	205	743	206
8	3412	3313	1055	133	835	736	185	12
8	3410	1095	3314	1096	833	203	737	204
8	3410	3323	1095	1094	833	746	203	202
8	3409	3316	1093	1092	832	739	201	200
8	3301	3300	3361	3366	724	723	784	789
8	991	992	3348	3381	152	153	771	804
8	3390	1060	3329	1061	813	190	752	191
8	3412	3319	3349	3347	835	742	772	770
8	3318	3379	3381	3348	741	802	804	771
8	1006	3356	1005	3355	145	779	144	778
8	3388	3413	3410	3323	811	836	833	746
8	3325	3407	1065	1064	748	830	195	194
8	3407	3331	1064	1063	830	754	194	193
8	3408	1090	3327	1091	831	198	750	199
8	3408	3330	1090	1089	831	753	198	197
8	3296	3295	3362	3365	719	718	785	788
8	3309	3312	3369	3372	732	735	792	795
8	3404	3329	3389	3328	827	752	812	751
8	880	881	3341	3344	179	180	764	767
8	1007	3357	1006	3356	146	780	145	779
8	877	878	3338	3339	176	177	761	762
8	3340	3333	3339	3334	763	756	762	757
8	3324	3411	1088	3334	747	834	196	757
8	3335	3401	3417	3420	758	824	840	843
8	3335	3345	883	882	758	768	182	181
8	877	3338	876	3337	176	761	175	760
8	3340	3339	879	878	763	762	178	177
8	3378	3376	3344	3341	801	799	767	764
8	3373	3375	3336	3343	796	798	759	766
8	3328	3331	3392	3378	751	754	815	801
8	3353	3352	994	993	776	775	155	154
8	3349	3347	988	987	772	770	149	148
8	990	991	3351	3348	151	152	774	771
8	3412	3349	3313	3350	835	772	736	773
8	3350	3351	3313	3320	773	774	736	743
8	3351	3350	990	989	774	773	151	150
8	3318	3381	3394	3352	741	804	817	775
8	3396	3382	3405	3380	819	805	828	803
8	1008	3358	1007	3357	147	781	146	780
8	3416	3395	3383	3332	839	818	806	755
8	3354	3315	3358	3395	777	738	781	818
8	3295	3304	3365	3374	718	727	788	797
8	3360	3366	3299	3300	783	789	722	723
8	3361	3367	3301	3305	784	790	724	728
8	3362	3386	3363	3419	785	809	786	842
8	3418	3398	3364	3360	841	821	787	783
8	3405	3302	3367	3305	828	725	790	728
8	3310	3368	3312	3372	733	791	735	795
8	3368	3404	3372	3369	791	827	795	792
8	3391	3307	3370	3308	814	730	793	731
8	3391	3401	3307	3306	814	824	730	729
8	3417	3377	3335	3345	840	800	758	768
8	3336	3337	3330	3324	759	760	753	747
8	3327	3393	3408	3373	750	816	831	796
8	3373	3393	3375	3402	796	816	798	825
8	3325	3414	3407	3376	748	837	830	799
8	3344	3345	3378	3377	767	768	801	800
8	3328	3392	3389	3400	751	815	812	823
8	3331	3407	3378	3376	754	830	801	799
8	3382	3353	3380	3346	805	776	803	769
8	3394	3352	3382	3353	817	775	805	776
8	3403	3383	3322	3332	826	806	745	755
8	3371	3311	3403	3355	794	734	826	778
8	3397	3326	3386	3384	820	749	809	807
8	3386	3384	3419	3418	809	807	842	841
8	3317	3413	3385	3415	740	836	808	838
8	3409	3317	3399	3385	832	740	822	808
8	3393	3327	3397	3326	816	750	820	749
8	3387	3402	3397	3393	810	825	820	816
8	3370	3369	3389	3404	793	792	812	827
8	3391	3370	3400	3389	814	793	823	812
8	3417	3392	3377	3378	840	815	800	801
8	3382	3396	3394	3314	805	819	817	737
8	3367	3388	3405	3396	790	811	828	819
8	3366	3360	3399	3398	789	783	822	821
8	3420	3400	3417	3392	843	823	840	815
8	3365	3374	3402	3375	788	797	825	798
8	3367	3361	3415	3385	790	784	838	808
8	3322	3321	3403	3371	745	744	826	794
8	3383	3356	3416	3357	806	779	839	780
8	3363	3419	3364	3418	786	842	787	841
8	3400	3420	3391	3401	823	843	814	824
8	216	1104	217	1108	1422	3426	1421	3430
8	1099	1141	1104	1219	3421	3463	3426	3541
8	1161	1125	222	223	3483	3447	1473	1472
8	224	223	1123	1125	1471	1472	3445	3447
8	1198	1211	1138	1144	3520	3533	3460	3466
8	1120	1119	227	228	3442	3441	1468	1467
8	229	228	1124	1119	1466	1467	3446	3441
8	1225	1186	1153	1157	3547	3508	3475	3479
8	264	1132	265	1136	1357	3454	1356	3458
8	1151	1149	1148	20	3473	3471	3470	280
8	1177	1170	1110	1116	3499	3492	3432	3438
8	211	1103	212	1100	1427	3425	1426	3422
8	252	1114	253	1109	1493	3436	1492	3431
8	249	248	1112	1115	1496	1497	3434	3437
8	241	1156	242	1155	1528	3478	1527	3477
8	1113	245	1169	244	3435	1500	3491	1501
8	245	1113	246	1117	1500	3435	1499	3439
8	1104	216	1099	215	3426	1422	3421	1423
8	1139	1127	1100	1106	3461	3449	3422	3428
8	217	1108	15	218	1421	3430	286	1457
8	19	277	1214	1126	281	1388	3536	3448
8	215	214	1099	1105	1423	1424	3421	3427
8	1100	1106	212	213	3422	3428	1426	1425
8	1166	1208	1139	1143	3488	3530	3461	3465
8	210	1101	211	1103	1428	3423	1427	3425
8	209	1107	210	1101	1429	3429	1428	3423
8	1165	255	1118	254	3487	1490	3440	1491
8	220	1164	221	1161	1455	3486	1454	3483
8	1188	276	1146	275	3510	1389	3468	1390
8	1211	1182	1200	1190	3533	3504	3522	3512
8	1124	230	229	17	3446	1539	1466	295
8	227	226	1120	1121	1468	1469	3442	3443
8	226	225	1121	1122	1469	1470	3443	3444
8	225	224	1122	1123	1470	1471	3444	3445
8	1123	1179	1122	1178	3445	3501	3444	3500
8	269	268	1147	1201	1396	1397	3469	3523
8	270	269	1130	1147	1395	1396	3452	3469
8	235	1158	236	1154	1534	3480	1533	3476
8	20	1149	267	1137	280	3471	1398	3459
8	238	237	1152	1151	1531	1532	3474	3473
8	1159	1152	1136	1217	3481	3474	3458	3539
8	1203	1184	1132	1202	3525	3506	3454	3524
8	241	240	1156	1160	1528	1529	3478	3482
8	1203	1132	1128	264	3525	3454	3450	1357
8	1184	1160	1202	1159	3506	3482	3524	3481
8	242	1155	243	1169	1527	3477	1526	3491
8	1169	244	243	18	3491	1501	1526	296
8	246	1117	247	1111	1499	3439	1498	3433
8	1174	1111	1176	1117	3496	3433	3498	3439
8	1177	1222	1193	1173	3499	3544	3515	3495
8	249	1112	250	1110	1496	3434	1495	3432
8	251	1116	252	1114	1494	3438	1493	3436
8	1101	1107	1168	1167	3423	3429	3490	3489
8	1215	259	1140	258	3537	1362	3462	1363
8	1102	1107	208	209	3424	3429	1430	1429
8	1102	208	1165	207	3424	1430	3487	1431
8	1165	207	255	14	3487	1431	1490	287
8	1143	1208	258	1140	3465	3530	1363	3462
8	261	1135	262	1129	1360	3457	1359	3451
8	1156	1183	1155	1185	3478	3505	3477	3507
8	1201	268	1137	267	3523	1397	3459	1398
8	1199	1181	1138	1198	3521	3503	3460	3520
8	1189	1131	1145	274	3511	3453	3467	1391
8	277	1141	1126	1099	1388	3463	3448	3421
8	1105	214	1106	213	3427	1424	3428	1425
8	1127	1139	256	257	3449	3461	1365	1364
8	1171	1195	1226	1192	3493	3517	3548	3514
8	253	1109	254	1118	1492	3431	1491	3440
8	1166	1139	1103	1100	3488	3461	3425	3422
8	1214	1105	1127	1106	3536	3427	3449	3428
8	1140	1208	1192	1221	3462	3530	3514	3543
8	1163	219	1162	218	3485	1456	3484	1457
8	277	276	1141	1188	1388	1389	3463	3510
8	1221	1206	1192	1226	3543	3528	3514	3548
8	1116	251	1110	250	3438	1494	3432	1495
8	263	262	1216	1129	1358	1359	3538	3451
8	1115	248	1111	247	3437	1497	3433	1498
8	1169	1155	1113	1185	3491	3477	3435	3507
8	1226	1172	1109	1118	3548	3494	3431	3440
8	261	260	1133	1142	1360	1361	3455	3464
8	1193	1135	1133	261	3515	3457	3455	1360
8	1195	1196	1215	1142	3517	3518	3537	3464
8	1203	1128	1207	1197	3525	3450	3529	3519
8	1165	1118	1102	1172	3487	3440	3424	3494
8	234	233	1150	1157	1535	1536	3472	3479
8	1199	1138	1130	270	3521	3460	3452	1395
8	1212	1180	1199	1181	3534	3502	3521	3503
8	1200	1218	1211	1144	3522	3540	3533	3466
8	270	1138	271	1144	1395	3460	1394	3466
8	1125	1182	1123	1179	3447	3504	3445	3501
8	1124	1205	230	231	3446	3527	1539	1538
8	231	1205	232	1153	1538	3527	1537	3475
8	274	273	1145	1134	1391	1392	3467	3456
8	221	1161	16	222	1454	3483	292	1473
8	1214	1127	19	256	3536	3449	281	1365
8	1216	1128	263	264	3538	3450	1358	1357
8	1175	1209	1115	1173	3497	3531	3437	3495
8	1146	275	1131	274	3468	1390	3453	1391
8	1217	266	1136	265	3539	1355	3458	1356
8	272	1218	273	1134	1393	3540	1392	3456
8	1175	1174	1209	1194	3497	3496	3531	3516
8	1135	1209	1129	1194	3457	3531	3451	3516
8	266	1217	20	1148	1355	3539	280	3470
8	239	238	1159	1152	1530	1531	3481	3474
8	1220	1137	1158	1149	3542	3459	3480	3471
8	1218	272	1144	271	3540	1393	3466	1394
8	1103	1101	1166	1168	3425	3423	3488	3490
8	259	1215	260	1142	1362	3537	1361	3464
8	1133	1142	1210	1196	3455	3464	3532	3518
8	1168	1221	1166	1208	3490	3543	3488	3530
8	258	257	1143	1139	1363	1364	3465	3461
8	1182	1211	1179	1178	3504	3533	3501	3500
8	1163	1162	1131	1146	3485	3484	3453	3468
8	219	1163	220	1164	1456	3485	1455	3486
8	1141	1188	1219	1213	3463	3510	3541	3535
8	1157	233	1153	232	3479	1536	3475	1537
8	1180	1212	1191	1225	3502	3534	3513	3547
8	1148	1217	1151	1152	3470	3539	3473	3474
8	1223	1201	1220	1137	3545	3523	3542	3459
8	1158	1149	1154	1151	3480	3471	3476	3473
8	234	1150	235	1158	1535	3472	1534	3480
8	1207	1183	1203	1184	3529	3505	3525	3506
8	1154	1151	236	237	3476	3473	1533	1532
8	1225	1153	1191	1205	3547	3475	3513	3527
8	1130	1147	1204	1187	3452	3469	3526	3509
8	1159	1160	239	240	3481	3482	1530	1529
8	1183	1156	1184	1160	3505	3478	3506	3482
8	1161	1190	1125	1182	3483	3512	3447	3504
8	1213	1162	1108	218	3535	3484	3430	1457
8	1164	1163	1189	1131	3486	3485	3511	3453
8	1164	1189	1161	1190	3486	3511	3483	3512
8	1107	1102	1167	1172	3429	3424	3489	3494
8	1117	1113	1176	1185	3439	3435	3498	3507
8	1116	1170	1114	1171	3438	3492	3436	3493
8	1195	1215	1192	1140	3517	3537	3514	3462
8	1226	1109	1171	1114	3548	3431	3493	3436
8	1226	1206	1172	1167	3548	3528	3494	3489
8	1177	1110	1222	1112	3499	3432	3544	3434
8	1174	1175	1111	1115	3496	3497	3433	3437
8	1135	1193	1209	1173	3457	3515	3531	3495
8	1196	1170	1210	1177	3518	3492	3532	3499
8	1133	1210	1193	1177	3455	3532	3515	3499
8	1181	1121	1178	1122	3503	3443	3500	3444
8	1180	1120	1181	1121	3502	3442	3503	3443
8	1191	1119	1180	1120	3513	3441	3502	3442
8	1191	1205	1119	1124	3513	3527	3441	3446
8	1159	1136	1202	1132	3481	3458	3524	3454
8	1174	1176	1197	1207	3496	3498	3519	3529
8	1223	1186	1187	1204	3545	3508	3509	3526
8	1130	1204	1199	1212	3452	3526	3521	3534
8	1158	1150	1220	1223	3480	3472	3542	3545
8	1189	1145	1190	1134	3511	3467	3512	3456
8	1206	1221	1167	1168	3528	3543	3489	3490
8	1224	1197	1216	1128	3546	3519	3538	3450
8	1195	1171	1196	1170	3517	3493	3518	3492
8	1181	1178	1198	1211	3503	3500	3520	3533
8	1134	1218	1190	1200	3456	3540	3512	3522
8	1176	1185	1207	1183	3498	3507	3529	3505
8	1186	1225	1204	1212	3508	3547	3526	3534
8	1213	1108	1219	1104	3535	3430	3541	3426
8	1126	1099	1214	1105	3448	3421	3536	3427
8	1222	1112	1173	1115	3544	3434	3495	3437
8	1150	1157	1223	1186	3472	3479	3545	3508
8	1187	1147	1223	1201	3509	3469	3545	3523
8	1194	1174	1224	1197	3516	3496	3546	3519
8	1194	1224	1129	1216	3516	3546	3451	3538
8	1162	1213	1146	1188	3484	3535	3468	3510
8	1422	3426	1421	3430	1433	3554	1432	3558
8	3421	3463	3426	3541	3549	3591	3554	3669
8	3483	3447	1473	1472	3611	3575	1481	1480
8	1471	1472	3445	3447	1479	1480	3573	3575
8	3520	3533	3460	3466	3648	3661	3588	3594
8	3442	3441	1468	1467	3570	3569	1476	1475
8	1466	1467	3446	3441	1474	1475	3574	3569
8	3547	3508	3475	3479	3675	3636	3603	3607
8	1357	3454	1356	3458	1368	3582	1367	3586
8	3473	3471	3470	280	3601	3599	3598	279
8	3499	3492	3432	3438	3627	3620	3560	3566
8	1427	3425	1426	3422	1438	3553	1437	3550
8	1493	3436	1492	3431	1505	3564	1504	3559
8	1496	1497	3434	3437	1508	1509	3562	3565
8	1528	3478	1527	3477	1542	3606	1541	3605
8	3435	1500	3491	1501	3563	1512	3619	1513
8	1500	3435	1499	3439	1512	3563	1511	3567
8	3426	1422	3421	1423	3554	1433	3549	1434
8	3461	3449	3422	3428	3589	3577	3550	3556
8	1421	3430	286	1457	1432	3558	285	1461
8	281	1388	3536	3448	282	1399	3664	3576
8	1423	1424	3421	3427	1434	1435	3549	3555
8	3422	3428	1426	1425	3550	3556	1437	1436
8	3488	3530	3461	3465	3616	3658	3589	3593
8	1428	3423	1427	3425	1439	3551	1438	3553
8	1429	3429	1428	3423	1440	3557	1439	3551
8	3487	1490	3440	1491	3615	1502	3568	1503
8	1455	3486	1454	3483	1459	3614	1458	3611
8	3510	1389	3468	1390	3638	1400	3596	1401
8	3533	3504	3522	3512	3661	3632	3650	3640
8	3446	1539	1466	295	3574	1553	1474	294
8	1468	1469	3442	3443	1476	1477	3570	3571
8	1469	1470	3443	3444	1477	1478	3571	3572
8	1470	1471	3444	3445	1478	1479	3572	3573
8	3445	3501	3444	3500	3573	3629	3572	3628
8	1396	1397	3469	3523	1407	1408	3597	3651
8	1395	1396	3452	3469	1406	1407	3580	3597
8	1534	3480	1533	3476	1548	3608	1547	3604
8	280	3471	1398	3459	279	3599	1409	3587
8	1531	1532	3474	3473	1545	1546	3602	3601
8	3481	3474	3458	3539	3609	3602	3586	3667
8	3525	3506	3454	3524	3653	3634	3582	3652
8	1528	1529	3478	3482	1542	1543	3606	3610
8	3525	3454	3450	1357	3653	3582	3578	1368
8	3506	3482	3524	3481	3634	3610	3652	3609
8	1527	3477	1526	3491	1541	3605	1540	3619
8	3491	1501	1526	296	3619	1513	1540	297
8	1499	3439	1498	3433	1511	3567	1510	3561
8	3496	3433	3498	3439	3624	3561	3626	3567
8	3499	3544	3515	3495	3627	3672	3643	3623
8	1496	3434	1495	3432	1508	3562	1507	3560
8	1494	3438	1493	3436	1506	3566	1505	3564
8	3423	3429	3490	3489	3551	3557	3618	3617
8	3537	1362	3462	1363	3665	1373	3590	1374
8	3424	3429	1430	1429	3552	3557	1441	1440
8	3424	1430	3487	1431	3552	1441	3615	1442
8	3487	1431	1490	287	3615	1442	1502	288
8	3465	3530	1363	3462	3593	3658	1374	3590
8	1360	3457	1359	3451	1371	3585	1370	3579
8	3478	3505	3477	3507	3606	3633	3605	3635
8	3523	1397	3459	1398	3651	1408	3587	1409
8	3521	3503	3460	3520	3649	3631	3588	3648
8	3511	3453	3467	1391	3639	3581	3595	1402
8	1388	3463	3448	3421	1399	3591	3576	3549
8	3427	1424	3428	1425	3555	1435	3556	1436
8	3449	3461	1365	1364	3577	3589	1376	1375
8	3493	3517	3548	3514	3621	3645	3676	3642
8	1492	3431	1491	3440	1504	3559	1503	3568
8	3488	3461	3425	3422	3616	3589	3553	3550
8	3536	3427	3449	3428	3664	3555	3577	3556
8	3462	3530	3514	3543	3590	3658	3642	3671
8	3485	1456	3484	1457	3613	1460	3612	1461
8	1388	1389	3463	3510	1399	1400	3591	3638
8	3543	3528	3514	3548	3671	3656	3642	3676
8	3438	1494	3432	1495	3566	1506	3560	1507
8	1358	1359	3538	3451	1369	1370	3666	3579
8	3437	1497	3433	1498	3565	1509	3561	1510
8	3491	3477	3435	3507	3619	3605	3563	3635
8	3548	3494	3431	3440	3676	3622	3559	3568
8	1360	1361	3455	3464	1371	1372	3583	3592
8	3515	3457	3455	1360	3643	3585	3583	1371
8	3517	3518	3537	3464	3645	3646	3665	3592
8	3525	3450	3529	3519	3653	3578	3657	3647
8	3487	3440	3424	3494	3615	3568	3552	3622
8	1535	1536	3472	3479	1549	1550	3600	3607
8	3521	3460	3452	1395	3649	3588	3580	1406
8	3534	3502	3521	3503	3662	3630	3649	3631
8	3522	3540	3533	3466	3650	3668	3661	3594
8	1395	3460	1394	3466	1406	3588	1405	3594
8	3447	3504	3445	3501	3575	3632	3573	3629
8	3446	3527	1539	1538	3574	3655	1553	1552
8	1538	3527	1537	3475	1552	3655	1551	3603
8	1391	1392	3467	3456	1402	1403	3595	3584
8	1454	3483	292	1473	1458	3611	291	1481
8	3536	3449	281	1365	3664	3577	282	1376
8	3538	3450	1358	1357	3666	3578	1369	1368
8	3497	3531	3437	3495	3625	3659	3565	3623
8	3468	1390	3453	1391	3596	1401	3581	1402
8	3539	1355	3458	1356	3667	1366	3586	1367
8	1393	3540	1392	3456	1404	3668	1403	3584
8	3497	3496	3531	3516	3625	3624	3659	3644
8	3457	3531	3451	3516	3585	3659	3579	3644
8	1355	3539	280	3470	1366	3667	279	3598
8	1530	1531	3481	3474	1544	1545	3609	3602
8	3542	3459	3480	3471	3670	3587	3608	3599
8	3540	1393	3466	1394	3668	1404	3594	1405
8	3425	3423	3488	3490	3553	3551	3616	3618
8	1362	3537	1361	3464	1373	3665	1372	3592
8	3455	3464	3532	3518	3583	3592	3660	3646
8	3490	3543	3488	3530	3618	3671	3616	3658
8	1363	1364	3465	3461	1374	1375	3593	3589
8	3504	3533	3501	3500	3632	3661	3629	3628
8	3485	3484	3453	3468	3613	3612	3581	3596
8	1456	3485	1455	3486	1460	3613	1459	3614
8	3463	3510	3541	3535	3591	3638	3669	3663
8	3479	1536	3475	1537	3607	1550	3603	1551
8	3502	3534	3513	3547	3630	3662	3641	3675
8	3470	3539	3473	3474	3598	3667	3601	3602
8	3545	3523	3542	3459	3673	3651	3670	3587
8	3480	3471	3476	3473	3608	3599	3604	3601
8	1535	3472	1534	3480	1549	3600	1548	3608
8	3529	3505	3525	3506	3657	3633	3653	3634
8	3476	3473	1533	1532	3604	3601	1547	1546
8	3547	3475	3513	3527	3675	3603	3641	3655
8	3452	3469	3526	3509	3580	3597	3654	3637
8	3481	3482	1530	1529	3609	3610	1544	1543
8	3505	3478	3506	3482	3633	3606	3634	3610
8	3483	3512	3447	3504	3611	3640	3575	3632
8	3535	3484	3430	1457	3663	3612	3558	1461
8	3486	3485	3511	3453	3614	3613	3639	3581
8	3486	3511	3483	3512	3614	3639	3611	3640
8	3429	3424	3489	3494	3557	3552	3617	3622
8	3439	3435	3498	3507	3567	3563	3626	3635
8	3438	3492	3436	3493	3566	3620	3564	3621
8	3517	3537	3514	3462	3645	3665	3642	3590
8	3548	3431	3493	3436	3676	3559	3621	3564
8	3548	3528	3494	3489	3676	3656	3622	3617
8	3499	3432	3544	3434	3627	3560	3672	3562
8	3496	3497	3433	3437	3624	3625	3561	3565
8	3457	3515	3531	3495	3585	3643	3659	3623
8	3518	3492	3532	3499	3646	3620	3660	3627
8	3455	3532	3515	3499	3583	3660	3643	3627
8	3503	3443	3500	3444	3631	3571	3628	3572
8	3502	3442	3503	3443	3630	3570	3631	3571
8	3513	3441	3502	3442	3641	3569	3630	3570
8	3513	3527	3441	3446	3641	3655	3569	3574
8	3481	3458	3524	3454	3609	3586	3652	3582
8	3496	3498	3519	3529	3624	3626	3647	3657
8	3545	3508	3509	3526	3673	3636	3637	3654
8	3452	3526	3521	3534	3580	3654	3649	3662
8	3480	3472	3542	3545	3608	3600	3670	3673
8	3511	3467	3512	3456	3639	3595	3640	3584
8	3528	3543	3489	3490	3656	3671	3617	3618
8	3546	3519	3538	3450	3674	3647	3666	3578
8	3517	3493	3518	3492	3645	3621	3646	3620
8	3503	3500	3520	3533	3631	3628	3648	3661
8	3456	3540	3512	3522	3584	3668	3640	3650
8	3498	3507	3529	3505	3626	3635	3657	3633
8	3508	3547	3526	3534	3636	3675	3654	3662
8	3535	3430	3541	3426	3663	3558	3669	3554
8	3448	3421	3536	3427	3576	3549	3664	3555
8	3544	3434	3495	3437	3672	3562	3623	3565
8	3472	3479	3545	3508	3600	3607	3673	3636
8	3509	3469	3545	3523	3637	3597	3673	3651
8	3516	3496	3546	3519	3644	3624	3674	3647
8	3516	3546	3451	3538	3644	3674	3579	3666
8	3484	3535	3468	3510	3612	3663	3596	3638
8	1433	3554	1432	3558	1444	3682	1443	3686
8	3549	3591	3554	3669	3677	3719	3682	3797
8	3611	3575	1481	1480	3739	3703	1489	1488
8	1479	1480	3573	3575	1487	1488	3701	3703
8	3648	3661	3588	3594	3776	3789	3716	3722
8	3570	3569	1476	1475	3698	3697	1484	1483
8	1474	1475	3574	3569	1482	1483	3702	3697
8	3675	3636	3603	3607	3803	3764	3731	3735
8	1368	3582	1367	3586	1379	3710	1378	3714
8	3601	3599	3598	279	3729	3727	3726	278
8	3627	3620	3560	3566	3755	3748	3688	3694
8	1438	3553	1437	3550	1449	3681	1448	3678
8	1505	3564	1504	3559	1517	3692	1516	3687
8	1508	1509	3562	3565	1520	1521	3690	3693
8	1542	3606	1541	3605	1556	3734	1555	3733
8	3563	1512	3619	1513	3691	1524	3747	1525
8	1512	3563	1511	3567	1524	3691	1523	3695
8	3554	1433	3549	1434	3682	1444	3677	1445
8	3589	3577	3550	3556	3717	3705	3678	3684
8	1432	3558	285	1461	1443	3686	284	1465
8	282	1399	3664	3576	283	1410	3792	3704
8	1434	1435	3549	3555	1445	1446	3677	3683
8	3550	3556	1437	1436	3678	3684	1448	1447
8	3616	3658	3589	3593	3744	3786	3717	3721
8	1439	3551	1438	3553	1450	3679	1449	3681
8	1440	3557	1439	3551	1451	3685	1450	3679
8	3615	1502	3568	1503	3743	1514	3696	1515
8	1459	3614	1458	3611	1463	3742	1462	3739
8	3638	1400	3596	1401	3766	1411	3724	1412
8	3661	3632	3650	3640	3789	3760	3778	3768
8	3574	1553	1474	294	3702	1567	1482	293
8	1476	1477	3570	3571	1484	1485	3698	3699
8	1477	1478	3571	3572	1485	1486	3699	3700
8	1478	1479	3572	3573	1486	1487	3700	3701
8	3573	3629	3572	3628	3701	3757	3700	3756
8	1407	1408	3597	3651	1418	1419	3725	3779
8	1406	1407	3580	3597	1417	1418	3708	3725
8	1548	3608	1547	3604	1562	3736	1561	3732
8	279	3599	1409	3587	278	3727	1420	3715
8	1545	1546	3602	3601	1559	1560	3730	3729
8	3609	3602	3586	3667	3737	3730	3714	3795
8	3653	3634	3582	3652	3781	3762	3710	3780
8	1542	1543	3606	3610	1556	1557	3734	3738
8	3653	3582	3578	1368	3781	3710	3706	1379
8	3634	3610	3652	3609	3762	3738	3780	3737
8	1541	3605	1540	3619	1555	3733	1554	3747
8	3619	1513	1540	297	3747	1525	1554	298
8	1511	3567	1510	3561	1523	3695	1522	3689
8	3624	3561	3626	3567	3752	3689	3754	3695
8	3627	3672	3643	3623	3755	3800	3771	3751
8	1508	3562	1507	3560	1520	3690	1519	3688
8	1506	3566	1505	3564	1518	3694	1517	3692
8	3551	3557	3618	3617	3679	3685	3746	3745
8	3665	1373	3590	1374	3793	1384	3718	1385
8	3552	3557	1441	1440	3680	3685	1452	1451
8	3552	1441	3615	1442	3680	1452	3743	1453
8	3615	1442	1502	288	3743	1453	1514	289
8	3593	3658	1374	3590	3721	3786	1385	3718
8	1371	3585	1370	3579	1382	3713	1381	3707
8	3606	3633	3605	3635	3734	3761	3733	3763
8	3651	1408	3587	1409	3779	1419	3715	1420
8	3649	3631	3588	3648	3777	3759	3716	3776
8	3639	3581	3595	1402	3767	3709	3723	1413
8	1399	3591	3576	3549	1410	3719	3704	3677
8	3555	1435	3556	1436	3683	1446	3684	1447
8	3577	3589	1376	1375	3705	3717	1387	1386
8	3621	3645	3676	3642	3749	3773	3804	3770
8	1504	3559	1503	3568	1516	3687	1515	3696
8	3616	3589	3553	3550	3744	3717	3681	3678
8	3664	3555	3577	3556	3792	3683	3705	3684
8	3590	3658	3642	3671	3718	3786	3770	3799
8	3613	1460	3612	1461	3741	1464	3740	1465
8	1399	1400	3591	3638	1410	1411	3719	3766
8	3671	3656	3642	3676	3799	3784	3770	3804
8	3566	1506	3560	1507	3694	1518	3688	1519
8	1369	1370	3666	3579	1380	1381	3794	3707
8	3565	1509	3561	1510	3693	1521	3689	1522
8	3619	3605	3563	3635	3747	3733	3691	3763
8	3676	3622	3559	3568	3804	3750	3687	3696
8	1371	1372	3583	3592	1382	1383	3711	3720
8	3643	3585	3583	1371	3771	3713	3711	1382
8	3645	3646	3665	3592	3773	3774	3793	3720
8	3653	3578	3657	3647	3781	3706	3785	3775
8	3615	3568	3552	3622	3743	3696	3680	3750
8	1549	1550	3600	3607	1563	1564	3728	3735
8	3649	3588	3580	1406	3777	3716	3708	1417
8	3662	3630	3649	3631	3790	3758	3777	3759
8	3650	3668	3661	3594	3778	3796	3789	3722
8	1406	3588	1405	3594	1417	3716	1416	3722
8	3575	3632	3573	3629	3703	3760	3701	3757
8	3574	3655	1553	1552	3702	3783	1567	1566
8	1552	3655	1551	3603	1566	3783	1565	3731
8	1402	1403	3595	3584	1413	1414	3723	3712
8	1458	3611	291	1481	1462	3739	290	1489
8	3664	3577	282	1376	3792	3705	283	1387
8	3666	3578	1369	1368	3794	3706	1380	1379
8	3625	3659	3565	3623	3753	3787	3693	3751
8	3596	1401	3581	1402	3724	1412	3709	1413
8	3667	1366	3586	1367	3795	1377	3714	1378
8	1404	3668	1403	3584	1415	3796	1414	3712
8	3625	3624	3659	3644	3753	3752	3787	3772
8	3585	3659	3579	3644	3713	3787	3707	3772
8	1366	3667	279	3598	1377	3795	278	3726
8	1544	1545	3609	3602	1558	1559	3737	3730
8	3670	3587	3608	3599	3798	3715	3736	3727
8	3668	1404	3594	1405	3796	1415	3722	1416
8	3553	3551	3616	3618	3681	3679	3744	3746
8	1373	3665	1372	3592	1384	3793	1383	3720
8	3583	3592	3660	3646	3711	3720	3788	3774
8	3618	3671	3616	3658	3746	3799	3744	3786
8	1374	1375	3593	3589	1385	1386	3721	3717
8	3632	3661	3629	3628	3760	3789	3757	3756
8	3613	3612	3581	3596	3741	3740	3709	3724
8	1460	3613	1459	3614	1464	3741	1463	3742
8	3591	3638	3669	3663	3719	3766	3797	3791
8	3607	1550	3603	1551	3735	1564	3731	1565
8	3630	3662	3641	3675	3758	3790	3769	3803
8	3598	3667	3601	3602	3726	3795	3729	3730
8	3673	3651	3670	3587	3801	3779	3798	3715
8	3608	3599	3604	3601	3736	3727	3732	3729
8	1549	3600	1548	3608	1563	3728	1562	3736
8	3657	3633	3653	3634	3785	3761	3781	3762
8	3604	3601	1547	1546	3732	3729	1561	1560
8	3675	3603	3641	3655	3803	3731	3769	3783
8	3580	3597	3654	3637	3708	3725	3782	3765
8	3609	3610	1544	1543	3737	3738	1558	1557
8	3633	3606	3634	3610	3761	3734	3762	3738
8	3611	3640	3575	3632	3739	3768	3703	3760
8	3663	3612	3558	1461	3791	3740	3686	1465
8	3614	3613	3639	3581	3742	3741	3767	3709
8	3614	3639	3611	3640	3742	3767	3739	3768
8	3557	3552	3617	3622	3685	3680	3745	3750
8	3567	3563	3626	3635	3695	3691	3754	3763
8	3566	3620	3564	3621	3694	3748	3692	3749
8	3645	3665	3642	3590	3773	3793	3770	3718
8	3676	3559	3621	3564	3804	3687	3749	3692
8	3676	3656	3622	3617	3804	3784	3750	3745
8	3627	3560	3672	3562	3755	3688	3800	3690
8	3624	3625	3561	3565	3752	3753	3689	3693
8	3585	3643	3659	3623	3713	3771	3787	3751
8	3646	3620	3660	3627	3774	3748	3788	3755
8	3583	3660	3643	3627	3711	3788	3771	3755
8	3631	3571	3628	3572	3759	3699	3756	3700
8	3630	3570	3631	3571	3758	3698	3759	3699
8	3641	3569	3630	3570	3769	3697	3758	3698
8	3641	3655	3569	3574	3769	3783	3697	3702
8	3609	3586	3652	3582	3737	3714	3780	3710
8	3624	3626	3647	3657	3752	3754	3775	3785
8	3673	3636	3637	3654	3801	3764	3765	3782
8	3580	3654	3649	3662	3708	3782	3777	3790
8	3608	3600	3670	3673	3736	3728	3798	3801
8	3639	3595	3640	3584	3767	3723	3768	3712
8	3656	3671	3617	3618	3784	3799	3745	3746
8	3674	3647	3666	3578	3802	3775	3794	3706
8	3645	3621	3646	3620	3773	3749	3774	3748
8	3631	3628	3648	3661	3759	3756	3776	3789
8	3584	3668	3640	3650	3712	3796	3768	3778
8	3626	3635	3657	3633	3754	3763	3785	3761
8	3636	3675	3654	3662	3764	3803	3782	3790
8	3663	3558	3669	3554	3791	3686	3797	3682
8	3576	3549	3664	3555	3704	3677	3792	3683
8	3672	3562	3623	3565	3800	3690	3751	3693
8	3600	3607	3673	3636	3728	3735	3801	3764
8	3637	3597	3673	3651	3765	3725	3801	3779
8	3644	3624	3674	3647	3772	3752	3802	3775
8	3644	3674	3579	3666	3772	3802	3707	3794
8	3612	3663	3596	3638	3740	3791	3724	3766
8	1444	3682	1443	3686	312	1232	311	1236
8	3677	3719	3682	3797	1227	1269	1232	1347
8	3739	3703	1489	1488	1289	1253	306	305
8	1487	1488	3701	3703	304	305	1251	1253
8	3776	3789	3716	3722	1326	1339	1266	1272
8	3698	3697	1484	1483	1248	1247	301	300
8	1482	1483	3702	3697	299	300	1252	1247
8	3803	3764	3731	3735	1353	1314	1281	1285
8	1379	3710	1378	3714	361	1260	360	1264
8	3729	3727	3726	278	1279	1277	1276	27
8	3755	3748	3688	3694	1305	1298	1238	1244
8	1449	3681	1448	3678	317	1231	316	1228
8	1517	3692	1516	3687	325	1242	324	1237
8	1520	1521	3690	3693	328	329	1240	1243
8	1556	3734	1555	3733	336	1284	335	1283
8	3691	1524	3747	1525	1241	332	1297	333
8	1524	3691	1523	3695	332	1241	331	1245
8	3682	1444	3677	1445	1232	312	1227	313
8	3717	3705	3678	3684	1267	1255	1228	1234
8	1443	3686	284	1465	311	1236	23	310
8	283	1410	3792	3704	26	348	1342	1254
8	1445	1446	3677	3683	313	314	1227	1233
8	3678	3684	1448	1447	1228	1234	316	315
8	3744	3786	3717	3721	1294	1336	1267	1271
8	1450	3679	1449	3681	318	1229	317	1231
8	1451	3685	1450	3679	319	1235	318	1229
8	3743	1514	3696	1515	1293	322	1246	323
8	1463	3742	1462	3739	308	1292	307	1289
8	3766	1411	3724	1412	1316	349	1274	350
8	3789	3760	3778	3768	1339	1310	1328	1318
8	3702	1567	1482	293	1252	347	299	21
8	1484	1485	3698	3699	301	302	1248	1249
8	1485	1486	3699	3700	302	303	1249	1250
8	1486	1487	3700	3701	303	304	1250	1251
8	3701	3757	3700	3756	1251	1307	1250	1306
8	1418	1419	3725	3779	356	357	1275	1329
8	1417	1418	3708	3725	355	356	1258	1275
8	1562	3736	1561	3732	342	1286	341	1282
8	278	3727	1420	3715	27	1277	358	1265
8	1559	1560	3730	3729	339	340	1280	1279
8	3737	3730	3714	3795	1287	1280	1264	1345
8	3781	3762	3710	3780	1331	1312	1260	1330
8	1556	1557	3734	3738	336	337	1284	1288
8	3781	3710	3706	1379	1331	1260	1256	361
8	3762	3738	3780	3737	1312	1288	1330	1287
8	1555	3733	1554	3747	335	1283	334	1297
8	3747	1525	1554	298	1297	333	334	25
8	1523	3695	1522	3689	331	1245	330	1239
8	3752	3689	3754	3695	1302	1239	1304	1245
8	3755	3800	3771	3751	1305	1350	1321	1301
8	1520	3690	1519	3688	328	1240	327	1238
8	1518	3694	1517	3692	326	1244	325	1242
8	3679	3685	3746	3745	1229	1235	1296	1295
8	3793	1384	3718	1385	1343	366	1268	367
8	3680	3685	1452	1451	1230	1235	320	319
8	3680	1452	3743	1453	1230	320	1293	321
8	3743	1453	1514	289	1293	321	322	24
8	3721	3786	1385	3718	1271	1336	367	1268
8	1382	3713	1381	3707	364	1263	363	1257
8	3734	3761	3733	3763	1284	1311	1283	1313
8	3779	1419	3715	1420	1329	357	1265	358
8	3777	3759	3716	3776	1327	1309	1266	1326
8	3767	3709	3723	1413	1317	1259	1273	351
8	1410	3719	3704	3677	348	1269	1254	1227
8	3683	1446	3684	1447	1233	314	1234	315
8	3705	3717	1387	1386	1255	1267	369	368
8	3749	3773	3804	3770	1299	1323	1354	1320
8	1516	3687	1515	3696	324	1237	323	1246
8	3744	3717	3681	3678	1294	1267	1231	1228
8	3792	3683	3705	3684	1342	1233	1255	1234
8	3718	3786	3770	3799	1268	1336	1320	1349
8	3741	1464	3740	1465	1291	309	1290	310
8	1410	1411	3719	3766	348	349	1269	1316
8	3799	3784	3770	3804	1349	1334	1320	1354
8	3694	1518	3688	1519	1244	326	1238	327
8	1380	1381	3794	3707	362	363	1344	1257
8	3693	1521	3689	1522	1243	329	1239	330
8	3747	3733	3691	3763	1297	1283	1241	1313
8	3804	3750	3687	3696	1354	1300	1237	1246
8	1382	1383	3711	3720	364	365	1261	1270
8	3771	3713	3711	1382	1321	1263	1261	364
8	3773	3774	3793	3720	1323	1324	1343	1270
8	3781	3706	3785	3775	1331	1256	1335	1325
8	3743	3696	3680	3750	1293	1246	1230	1300
8	1563	1564	3728	3735	343	344	1278	1285
8	3777	3716	3708	1417	1327	1266	1258	355
8	3790	3758	3777	3759	1340	1308	1327	1309
8	3778	3796	3789	3722	1328	1346	1339	1272
8	1417	3716	1416	3722	355	1266	354	1272
8	3703	3760	3701	3757	1253	1310	1251	1307
8	3702	3783	1567	1566	1252	1333	347	346
8	1566	3783	1565	3731	346	1333	345	1281
8	1413	1414	3723	3712	351	352	1273	1262
8	1462	3739	290	1489	307	1289	22	306
8	3792	3705	283	1387	1342	1255	26	369
8	3794	3706	1380	1379	1344	1256	362	361
8	3753	3787	3693	3751	1303	1337	1243	1301
8	3724	1412	3709	1413	1274	350	1259	351
8	3795	1377	3714	1378	1345	359	1264	360
8	1415	3796	1414	3712	353	1346	352	1262
8	3753	3752	3787	3772	1303	1302	1337	1322
8	3713	3787	3707	3772	1263	1337	1257	1322
8	1377	3795	278	3726	359	1345	27	1276
8	1558	1559	3737	3730	338	339	1287	1280
8	3798	3715	3736	3727	1348	1265	1286	1277
8	3796	1415	3722	1416	1346	353	1272	354
8	3681	3679	3744	3746	1231	1229	1294	1296
8	1384	3793	1383	3720	366	1343	365	1270
8	3711	3720	3788	3774	1261	1270	1338	1324
8	3746	3799	3744	3786	1296	1349	1294	1336
8	1385	1386	3721	3717	367	368	1271	1267
8	3760	3789	3757	3756	1310	1339	1307	1306
8	3741	3740	3709	3724	1291	1290	1259	1274
8	1464	3741	1463	3742	309	1291	308	1292
8	3719	3766	3797	3791	1269	1316	1347	1341
8	3735	1564	3731	1565	1285	344	1281	345
8	3758	3790	3769	3803	1308	1340	1319	1353
8	3726	3795	3729	3730	1276	1345	1279	1280
8	3801	3779	3798	3715	1351	1329	1348	1265
8	3736	3727	3732	3729	1286	1277	1282	1279
8	1563	3728	1562	3736	343	1278	342	1286
8	3785	3761	3781	3762	1335	1311	1331	1312
8	3732	3729	1561	1560	1282	1279	341	340
8	3803	3731	3769	3783	1353	1281	1319	1333
8	3708	3725	3782	3765	1258	1275	1332	1315
8	3737	3738	1558	1557	1287	1288	338	337
8	3761	3734	3762	3738	1311	1284	1312	1288
8	3739	3768	3703	3760	1289	1318	1253	1310
8	3791	3740	3686	1465	1341	1290	1236	310
8	3742	3741	3767	3709	1292	1291	1317	1259
8	3742	3767	3739	3768	1292	1317	1289	1318
8	3685	3680	3745	3750	1235	1230	1295	1300
8	3695	3691	3754	3763	1245	1241	1304	1313
8	3694	3748	3692	3749	1244	1298	1242	1299
8	3773	3793	3770	3718	1323	1343	1320	1268
8	3804	3687	3749	3692	1354	1237	1299	1242
8	3804	3784	3750	3745	1354	1334	1300	1295
8	3755	3688	3800	3690	1305	1238	1350	1240
8	3752	3753	3689	3693	1302	1303	1239	1243
8	3713	3771	3787	3751	1263	1321	1337	1301
8	3774	3748	3788	3755	1324	1298	1338	1305
8	3711	3788	3771	3755	1261	1338	1321	1305
8	3759	3699	3756	3700	1309	1249	1306	1250
8	3758	3698	3759	3699	1308	1248	1309	1249
8	3769	3697	3758	3698	1319	1247	1308	1248
8	3769	3783	3697	3702	1319	1333	1247	1252
8	3737	3714	3780	3710	1287	1264	1330	1260
8	3752	3754	3775	3785	1302	1304	1325	1335
8	3801	3764	3765	3782	1351	1314	1315	1332
8	3708	3782	3777	3790	1258	1332	1327	1340
8	3736	3728	3798	3801	1286	1278	1348	1351
8	3767	3723	3768	3712	1317	1273	1318	1262
8	3784	3799	3745	3746	1334	1349	1295	1296
8	3802	3775	3794	3706	1352	1325	1344	1256
8	3773	3749	3774	3748	1323	1299	1324	1298
8	3759	3756	3776	3789	1309	1306	1326	1339
8	3712	3796	3768	3778	1262	1346	1318	1328
8	3754	3763	3785	3761	1304	1313	1335	1311
8	3764	3803	3782	3790	1314	1353	1332	1340
8	3791	3686	3797	3682	1341	1236	1347	1232
8	3704	3677	3792	3683	1254	1227	1342	1233
8	3800	3690	3751	3693	1350	1240	1301	1243
8	3728	3735	3801	3764	1278	1285	1351	1314
8	3765	3725	3801	3779	1315	1275	1351	1329
8	3772	3752	3802	3775	1322	1302	1352	1325
8	3772	3802	3707	3794	1322	1352	1257	1344
8	3740	3791	3724	3766	1290	1341	1274	1316
4	3805	3807	3806	3808
4	3805	3808	3806	3809
4	3805	3806	3810	3809
4	3811	3813	3812	3814
4	3811	3816	3815	3813
4	3815	3817	3811	3813
4	3818	3819	3814	3811
4	3820	2200	2049	3821
4	3811	3819	3814	3822
4	3811	3816	3813	3814
4	3818	3815	3811	3816
4	3823	3825	3824	3826
4	3823	3828	3827	3829
4	3823	3825	3830	3829
4	3823	3830	3828	3829
4	3831	3833	3832	3834
4	3831	3836	3835	3837
4	3831	3833	3835	3838
4	3831	3839	3836	3840
4	3831	3839	3832	3838
4	3841	3843	3842	3844
4	3845	3846	3841	3847
4	3841	3849	3848	3850
4	3841	3852	3851	3853
4	3841	3847	3854	3845
4	3849	3843	3841	3848
4	3855	3857	3856	3858
4	3855	3860	3859	3861
4	3855	3860	3862	3857
4	3855	3862	3863	3864
4	3865	3867	3866	3868
4	3865	3870	3869	3868
4	3871	3866	3865	3872
4	3873	581	3041	580
4	3874	3870	3869	3865
4	3865	3871	3875	3874
4	3876	2760	3877	3878
4	3857	3880	3879	3876
4	3862	3879	3857	3880
4	3876	3881	3878	3877
4	3876	3879	3857	3882
4	3876	3882	3857	3883
4	3884	3886	3885	3887
4	3884	3889	3888	3890
4	3884	3892	3891	3893
4	3889	3892	3891	3884
4	3812	3895	3894	3896
4	3884	3888	3892	3885
4	3884	3897	3889	3890
4	3898	1630	3899	3900
4	3898	3901	378	3902
4	3898	3904	3903	3905
4	3898	3901	3904	3906
4	3898	3906	3904	3905
4	3907	3909	3908	3904
4	3907	3909	3910	3911
4	3907	3904	3908	3912
4	3907	3903	3904	3905
4	3913	3915	3914	3916
4	3914	3913	3916	3917
4	3914	3917	3918	3919
4	3916	3921	3920	3922
4	3914	3920	3923	3924
4	3925	3926	3873	2691
4	3914	3917	3919	3927
4	3914	3918	3924	3928
4	3914	3924	3923	3928
4	3835	3930	3929	3931
4	3932	3929	3835	3930
4	3932	3933	3835	3934
4	3932	3930	3935	3936
4	3932	3930	3933	3935
4	3937	3939	3938	3940
4	3937	3939	3941	3942
4	3937	3939	3940	3943
4	2071	3945	3944	3946
4	3937	3943	3940	3947
4	3937	3948	3947	3949
4	3950	3952	3951	3953
4	3950	3955	3954	3956
4	3950	3958	3957	3959
4	3950	3961	3960	3962
4	3963	3965	3964	3966
4	3950	3953	3957	3952
4	3950	3957	3962	3960
4	3950	3968	3967	3960
4	3969	3971	3970	3972
4	3969	3974	3973	3975
4	3976	3977	3969	3978
4	3978	3977	3969	3979
4	3969	3980	3972	3974
4	3969	3978	3979	3970
4	3814	3982	3981	3983
4	3983	3813	3984	3816
4	3926	230	3042	17
4	3983	3814	3985	3812
4	3983	3813	3986	3984
4	3983	3813	3812	3986
4	3983	3982	3985	3814
4	3983	3816	3987	3981
4	3918	3988	3922	3989
4	3990	3989	3815	3918
4	3991	3815	3990	3989
4	3918	3815	3992	3993
4	3918	3989	3922	3924
4	3994	436	440	39
4	3914	3918	3922	3924
4	3918	3992	3815	3990
4	3914	3922	3918	3917
4	3995	3997	3996	3998
4	3999	4001	4000	4002
4	4003	4005	4004	4006
4	4007	4005	4004	4003
4	3995	4008	4003	3996
4	3995	4007	4008	3997
4	4009	4011	4010	4012
4	4009	4014	4013	4011
4	4009	4015	4014	4011
4	4016	4018	4017	4019
4	4016	4020	4019	4021
4	4016	4022	3810	3947
4	4016	3810	4023	3947
4	4016	4024	4020	4022
4	4016	4025	4019	4024
4	4016	4022	3947	4026
4	3873	581	3042	3041
4	4016	4025	4026	4018
4	4027	4029	4028	4030
4	4027	4030	4031	4032
4	4027	4028	4033	4034
4	4027	4034	4033	4035
4	4036	4038	4037	4039
4	4036	4041	4040	4042
4	4036	4037	4043	4039
4	4036	4045	4044	4042
4	4046	1802	1845	1879
4	4036	4043	4041	4039
4	4047	4049	4048	4050
4	4047	4052	4051	4053
4	4047	4049	4050	4054
4	4047	4054	4050	4051
4	4047	4051	4055	4054
4	4056	4058	4057	4059
4	4056	4058	4060	4061
4	4056	4063	4062	4057
4	3835	3838	4064	4065
4	3835	3838	3833	4064
4	3835	3833	4066	4064
4	3835	4068	4067	3933
4	3835	4065	4067	3838
4	3835	3836	3931	3837
4	3835	3931	4066	3837
4	3933	4067	3835	4065
4	3831	3835	3836	3838
4	3831	4066	4069	4070
4	3884	3887	3885	4071
4	3884	3893	3885	3892
4	4072	2283	2438	2362
4	3891	3893	4073	4074
4	3891	3893	4075	4073
4	3891	3892	4075	3893
4	3891	4076	3889	4077
4	3891	4071	3893	4074
4	4067	4079	4078	3838
4	4067	4080	3933	4068
4	4067	4068	4081	4080
4	4067	4081	4082	4083
4	4067	4082	4078	4083
4	4084	1828	1813	1879
4	4085	4087	4086	4088
4	4085	4086	4089	4088
4	4085	4091	4090	4092
4	4093	3040	3041	3030
4	4085	4094	4090	4011
4	4085	4096	4095	4088
4	4097	4098	4085	4092
4	4091	4013	4098	4085
4	4099	4101	4100	4102
4	4103	4104	2017	1653
4	4105	4107	4106	4108
4	4109	4111	4110	4112
4	4085	4089	4014	4088
4	4085	4013	4096	4088
4	4113	4115	4114	4116
4	4113	4118	4117	4115
4	4113	4116	4114	4119
4	4113	4121	4120	4122
4	4113	4121	4119	4120
4	4123	4125	4124	4126
4	4124	4126	4125	4127
4	4127	4129	4128	4130
4	4127	4131	4126	4125
4	4124	4133	4132	4134
4	4135	4137	4136	4138
4	4127	4140	4139	4141
4	4142	4144	4143	4145
4	4124	4140	4132	4126
4	4127	4140	4141	4146
4	4124	4135	4125	4123
4	4127	4146	4138	4140
4	4147	4149	4148	4150
4	3894	4151	4148	4149
4	4152	4153	2336	4154
4	4155	421	4150	1694
4	4155	1694	4151	4156
4	4157	4159	4158	4081
4	4081	4161	4160	4162
4	4081	4163	4082	4083
4	4081	4068	4164	4080
4	4067	4080	4081	4160
4	4067	4081	4083	4160
4	4165	4167	4166	4168
4	4165	4168	4166	4169
4	4165	4171	4170	4172
4	4165	4169	4171	4172
4	4165	4173	4170	4171
4	4174	3021	4175	3020
4	4176	4178	4177	4179
4	4176	4180	4177	4178
4	4179	4181	4177	4176
4	4182	4184	4183	4185
4	4181	4187	4186	4179
4	4066	3835	3929	3931
4	4176	4189	4188	4190
4	4191	4179	4189	4192
4	4189	4192	4179	4176
4	4176	4188	4189	4192
4	4192	4179	4176	4186
4	4193	4195	4194	4196
4	4193	4197	4196	4198
4	4193	4196	4194	4199
4	4200	4202	4201	4203
4	4193	4198	4196	4204
4	4193	4196	4205	4204
4	4193	4196	4199	4205
4	4206	4207	3908	4208
4	3908	4206	4208	4209
4	3908	3912	4208	4210
4	3910	3911	3909	3854
4	3908	4207	4211	3854
4	3908	4211	4207	4212
4	3908	4208	4207	4210
4	3907	3912	3908	3911
4	3907	3909	3904	3903
4	3907	4214	4213	3912
4	4215	3879	3978	3970
4	4215	3971	3970	4216
4	4215	4217	3971	4216
4	4218	4220	4219	4221
4	4221	4223	4222	4224
4	4221	4122	4121	4218
4	4221	4226	4225	4227
4	4221	4227	4225	4228
4	4221	4121	4228	4229
4	4230	4231	3881	3883
4	3881	4233	4232	4234
4	3881	4231	4235	4233
4	3876	3881	4231	3883
4	3881	3878	3877	4234
4	3881	4237	4236	4238
4	4239	4240	4063	4061
4	3881	3876	4233	3877
4	4241	4243	4242	4244
4	4245	4246	4242	4244
4	4245	4243	4247	4248
4	4245	4248	4247	4249
4	4247	4250	4245	4249
4	4250	4251	4249	4247
4	4245	4246	4252	4253
4	4009	4255	4254	4256
4	4014	4258	4257	4259
4	4014	4260	4088	4261
4	4262	4264	4263	4227
4	4225	4265	4262	4227
4	4227	4266	4225	4265
4	4262	4267	4264	4268
4	4262	4268	4264	4265
4	4269	4194	4270	4271
4	4272	4017	4273	4269
4	4240	4275	4274	4276
4	4277	4279	4278	4280
4	4019	4017	4270	4273
4	4270	4017	4281	4269
4	4282	4060	4283	4284
4	4269	4285	4272	4017
4	4269	4286	4285	4281
4	4287	580	3041	3040
4	4288	2226	2340	2341
4	4289	4291	4290	4292
4	4290	4292	4291	4293
4	4294	2804	2801	2800
4	4295	1733	409	1665
4	4293	4297	4296	4292
4	4293	4292	2821	4297
4	2821	4298	4293	4299
4	4293	4291	4300	4298
4	4293	4298	4301	4299
4	4047	4303	4302	4304
4	4048	4306	4305	4307
4	4047	4053	4050	4308
4	4309	4095	4310	4096
4	4309	4312	4311	4310
4	4072	4104	4103	4312
4	4313	4314	1774	4315
4	4309	4096	4104	4095
4	4316	4309	4312	4104
4	4317	4319	4318	4320
4	4317	4322	4321	4323
4	4317	4325	4324	4320
4	4317	4326	4166	4327
4	4317	4166	4328	4327
4	4328	4330	4329	4327
4	4331	4032	4031	4332
4	4333	3874	4331	4031
4	4331	4332	3874	4334
4	4331	4031	3874	4332
4	4331	4333	4032	4335
4	4332	4337	4336	4338
4	4339	4341	4340	4342
4	4264	4344	4343	4345
4	4341	4347	4346	4348
4	4348	4346	4349	4347
4	4348	4351	4350	4341
4	4348	4350	4351	4352
4	4348	4353	4351	4340
4	4354	4356	4355	4357
4	4358	4357	4359	4354
4	4354	4358	4357	4360
4	4354	4357	4355	4361
4	4354	4181	4362	4361
4	4354	4363	4187	4355
4	4354	4363	4364	4365
4	4366	4367	3825	3824
4	4264	4369	4368	4267
4	3824	3829	4370	3825
4	3823	3824	3825	3829
4	3824	4371	4370	4372
4	3823	3826	3824	4373
4	3824	3826	4366	4373
4	4362	4375	4374	4376
4	4362	4181	4365	4377
4	4360	4376	4361	4362
4	4378	4380	4379	4381
4	4362	4375	4361	4181
4	4362	4374	4181	4377
4	4382	4383	4275	4063
4	4102	4384	4101	3966
4	4385	445	1725	1903
4	4386	4388	4387	4384
4	4386	4101	3966	3964
4	4386	4388	4384	4389
4	4386	4390	4384	4101
4	4386	4389	4384	4390
4	4391	4392	3017	4393
4	4394	4396	4395	4397
4	4395	4398	4394	4399
4	4396	4400	4394	4398
4	4395	4350	4351	4401
4	4033	4403	4402	4404
4	4405	3830	4028	4033
4	4033	4404	4035	4403
4	4033	4405	4406	4028
4	4033	4407	4028	4029
4	4027	4409	4408	4410
4	4027	4034	4035	4411
4	4412	2973	2974	2963
4	4413	4415	4414	4416
4	4413	4418	4417	4419
4	4413	4415	4417	4418
4	4413	4421	4420	4419
4	4413	4418	4422	4423
4	4413	4420	4421	4416
4	4181	4425	4424	4177
4	4426	4181	4375	4177
4	4177	4428	4427	4429
4	4177	4427	4430	4429
4	4177	4181	4375	4430
4	4431	4433	4432	4434
4	4056	4062	4061	4435
4	4431	4094	4436	4090
4	4094	4437	4089	4431
4	4438	4090	4432	4431
4	4439	2138	4440	4441
4	4113	4120	4114	4117
4	4090	4433	4432	4431
4	4442	4444	4443	4445
4	4446	4448	4447	4175
4	4431	4449	4089	4433
4	4450	4452	4451	4453
4	4454	4455	4452	4456
4	4166	4168	4457	4458
4	4454	4460	4459	4450
4	4450	4461	4453	4451
4	4450	4463	4462	4464
4	4450	4460	4462	4463
4	4465	2811	2815	2812
4	4450	4462	4461	4451
4	4466	4468	4467	4469
4	4466	4467	4468	4470
4	4466	4050	4053	4471
4	4466	4473	4472	4474
4	4466	4050	4475	4476
4	4477	4475	4466	4471
4	4466	4478	4477	4479
4	4466	4478	4474	4475
4	4025	4024	4480	4481
4	4480	4025	4482	4026
4	4480	4483	4481	4484
4	4480	4485	4025	4481
4	4480	4487	4486	4488
4	4026	4486	4489	4480
4	4480	4026	4482	4489
4	4480	4481	4487	4484
4	4363	4490	4192	4491
4	4492	4494	4493	4495
4	4192	4191	4187	4363
4	4363	4490	4491	4496
4	4187	4497	4355	4363
4	4363	4496	4355	4364
4	4354	4363	4355	4364
4	3841	3842	3893	3844
4	3841	3848	3844	3852
4	3841	3850	3852	4498
4	3844	3892	3842	3893
4	3851	3846	3893	3841
4	3893	3841	3846	3842
4	3841	3847	3842	3843
4	3842	3846	3885	4499
4	3842	3847	4499	3843
4	4078	4501	4500	4502
4	4078	3832	3839	3838
4	4079	3832	3838	2897
4	4078	3832	3838	4079
4	4503	4082	4501	3839
4	4501	3839	4082	4078
4	4067	4504	3933	4160
4	4067	4083	4078	4079
4	4163	4505	4078	4083
4	4506	2724	2728	2729
4	4507	4508	4042	4509
4	4509	4510	4507	4508
4	4509	4042	4040	4508
4	4509	4512	4511	4040
4	4509	4514	4513	4045
4	4036	4515	4038	4045
4	4036	4513	4509	4040
4	4509	4512	4513	4514
4	4516	4518	4517	4519
4	4520	4517	4516	4302
4	4516	4520	4302	4303
4	4516	4521	4517	4522
4	4516	4302	4517	4521
4	4245	4250	4247	4242
4	4242	4244	4243	4245
4	4248	4523	4247	4249
4	4247	4249	4523	4251
4	4524	4523	4247	4248
4	4516	4518	4525	4522
4	4525	4518	4515	4522
4	4526	1860	1815	1763
4	4516	4525	4527	4052
4	4528	4530	4529	4052
4	4531	4533	4532	4534
4	4525	4535	4513	4514
4	4525	4522	4515	4535
4	4056	4057	4058	4063
4	4060	4537	4536	4538
4	4058	4539	4060	4538
4	4058	4057	4382	4063
4	4058	4540	4382	4539
4	4240	4537	4536	4060
4	4058	4382	4540	4240
4	4541	4542	3939	4543
4	4543	4542	3939	3941
4	3943	4542	3941	3939
4	4544	3941	3943	4542
4	4545	4547	4546	4548
4	4546	4549	4547	4545
4	4545	4551	4550	4552
4	4545	4550	4553	4552
4	4553	4550	4545	4548
4	4545	4552	4554	4547
4	4545	4549	4547	4554
4	4555	4556	3856	4557
4	4555	4558	4557	3856
4	4559	4560	4555	4561
4	4555	4559	4561	4562
4	4555	4561	4558	4562
4	4555	4563	3946	4564
4	4555	3946	4563	4565
4	4566	4568	4567	4569
4	4569	4567	4570	4571
4	4569	4572	4571	4570
4	4569	4574	4573	4575
4	4569	4572	4576	4571
4	4166	4577	4321	4328
4	4457	4494	4182	4578
4	4165	4169	4166	4171
4	4165	4580	4579	4328
4	4165	4167	4168	4581
4	4166	4168	4326	4457
4	4582	4584	4583	4495
4	4585	2709	4586	4587
4	4585	2708	4588	4589
4	4585	4590	4588	4591
4	4585	4589	2709	2708
4	4585	4588	2704	4591
4	3811	4592	3817	4593
4	3817	4595	4594	4596
4	4506	2720	4597	2724
4	3817	4598	4594	4599
4	4600	4602	4601	4603
4	4492	4604	4506	4605
4	4492	4605	2729	4606
4	4492	2728	4606	2729
4	4492	4606	2728	4607
4	4608	4325	4609	4492
4	4610	4531	4611	4612
4	4492	4325	4606	4607
4	4492	4495	4597	4506
4	4006	1673	4613	4614
4	1673	4615	4006	4613
4	4006	4616	1672	1667
4	4006	4617	4003	4005
4	4006	4618	4615	1672
4	4006	4003	3995	4004
4	4006	4619	4615	4618
4	3995	4006	4004	4619
4	4203	4621	4620	4622
4	4200	4202	4623	4201
4	4203	4621	4443	4620
4	4443	4202	4624	4621
4	4621	4203	4443	4202
4	4625	4627	4626	4628
4	4629	4628	4630	4626
4	4550	4548	4553	4631
4	4625	4249	4632	4633
4	4630	4628	4249	4625
4	4631	4635	4634	4550
4	4625	4630	4038	4632
4	4636	4638	4637	4639
4	4638	4640	4639	4636
4	4641	4643	4642	4637
4	4636	4641	2845	4642
4	4642	4637	4636	4641
4	2850	2849	4642	4644
4	4642	4644	2849	4636
4	4645	579	3040	3039
4	3908	4209	3909	4211
4	4207	3854	4434	3849
4	4646	4648	4647	4551
4	4649	3854	4434	4207
4	4207	4650	4306	4434
4	4048	4207	4206	4208
4	4651	2105	2198	36
4	4392	4653	4652	4654
4	3908	4210	4207	3911
4	4512	4525	4527	4513
4	3915	4655	3920	3916
4	3916	3915	3914	3920
4	3916	4656	4655	4657
4	3916	4657	4658	4659
4	4660	3029	3028	3039
4	3916	4658	4657	4661
4	4163	4662	4157	1987
4	4081	4163	4161	4662
4	4163	4662	1987	1996
4	4163	4157	4503	1986
4	4646	4611	4551	4548
4	1986	4501	4503	4163
4	4163	4505	4083	4663
4	1996	4161	4163	4662
4	4517	4302	4438	4521
4	4516	4525	4052	4522
4	4516	4521	4522	4052
4	4516	4517	4518	4522
4	4517	4632	4522	4436
4	4664	4666	4665	4667
4	4664	4667	4665	4668
4	4666	4585	2705	4664
4	4664	4668	4665	4590
4	4585	4664	4590	4591
4	4585	4664	4591	2704
4	4585	4664	2704	2705
4	4669	4670	4626	4629
4	4669	4629	4671	4672
4	4669	4673	4626	4044
4	4669	4673	4674	4675
4	4669	4626	4676	4671
4	3888	3890	3889	4677
4	3888	4679	4678	3885
4	3892	4680	4499	4681
4	4547	4611	4533	4546
4	3888	3885	4678	4681
4	4682	3853	4683	4684
4	4682	4685	4433	4498
4	4682	4434	4498	4433
4	4682	3853	4685	4498
4	4686	4433	4682	4685
4	4682	4649	4434	4650
4	4682	4684	4649	4687
4	4688	4510	4689	4690
4	4688	4689	4159	4157
4	4688	4158	4159	4691
4	4688	4691	4511	4692
4	4693	4158	4688	4691
4	4688	4693	4691	4692
4	4694	4695	4643	4641
4	4694	4641	4643	4642
4	4695	4697	4696	4694
4	4698	4699	4641	4700
4	4701	4554	4702	4703
4	4694	4699	4641	4642
4	4257	1811	4704	4705
4	4706	4708	4707	4709
4	4705	4711	4710	4704
4	4705	4713	4712	1811
4	4705	4257	4712	4714
4	4715	4716	4077	4076
4	4715	2126	4717	2212
4	4715	4718	4312	4717
4	4715	4075	4076	4719
4	4715	4076	4077	4719
4	4720	4722	4721	4723
4	4715	2212	4717	4724
4	4638	4726	4725	4727
4	4638	4641	4725	4698
4	4636	4640	4639	4728
4	4636	4728	2849	2848
4	4638	4698	2844	4641
4	4636	2844	4638	2848
4	4729	4731	4730	4732
4	3985	1694	4151	4149
4	4733	4735	4734	4736
4	4737	1695	3985	4738
4	3985	3812	3814	4738
4	3983	3812	3985	4151
4	3982	1695	3985	4737
4	4739	4741	4740	4299
4	4739	4299	2817	4297
4	4742	4744	4743	4258
4	4742	4746	4745	4747
4	4746	4015	4742	4745
4	4742	4747	4745	4748
4	4742	4015	4252	4745
4	4742	4745	4252	4748
4	4402	4750	4749	4751
4	4402	4403	4750	4404
4	4402	4404	4752	4033
4	4402	4749	4750	4403
4	3848	4753	4311	3850
4	3841	3893	3852	3844
4	3848	3849	4754	4753
4	3848	3843	4754	3849
4	4755	4754	3848	3843
4	3867	4156	420	4756
4	4757	421	4758	4759
4	4757	3869	4760	4761
4	4757	4759	4761	4762
4	4761	4762	4760	4757
4	4733	4764	4763	4765
4	4760	4762	4756	4757
4	4766	4756	4760	4762
4	4176	4425	4177	4370
4	4588	2708	2703	2707
4	4370	4428	4767	4768
4	4769	4771	4770	4772
4	4773	4775	4774	4776
4	4777	4774	4773	4775
4	4776	4242	4778	4779
4	4776	4481	4487	4773
4	4776	4773	4024	4481
4	4776	4780	4024	4775
4	4776	4242	4779	4781
4	4776	4778	4242	4780
4	3971	4233	4782	4783
4	4216	4217	3971	4784
4	3969	3971	3975	4216
4	3971	4217	4783	4785
4	3971	4129	4785	4786
4	4786	3980	4785	3971
4	4787	4789	4788	4790
4	3975	4784	3971	4786
4	3908	3909	3854	4211
4	3841	3854	3853	3845
4	3841	3850	3848	3852
4	3849	4434	3853	3854
4	4769	4772	4791	4771
4	4207	4211	3854	3849
4	3841	3847	3846	3842
4	3854	4211	3909	3847
4	3854	3847	3843	4211
4	4638	4639	4792	4637
4	4792	4637	4793	4643
4	4794	4735	4732	4795
4	4792	4637	4639	3948
4	4640	4796	4638	4792
4	4792	4640	4639	4638
4	4792	4796	4727	4797
4	4798	4643	4792	4793
4	4792	3948	4799	4793
4	4800	4801	3891	4802
4	4803	4801	4804	3897
4	4716	1655	4805	4803
4	4803	4804	4806	3897
4	4804	4807	4803	4808
4	4809	4811	4810	4812
4	4803	4804	4800	4807
4	4813	4805	4716	1655
4	4803	4814	4716	1655
4	4815	4817	4816	4143
4	4815	4143	4816	4818
4	4815	4820	4819	4817
4	4434	4821	4306	4207
4	4822	4824	4823	4825
4	4826	578	3039	3038
4	4822	4827	4824	4828
4	4829	4823	4822	4700
4	4093	4830	4174	3031
4	4822	4829	4700	4831
4	4832	4833	4822	4828
4	4822	4832	4825	4831
4	4822	4700	4834	4698
4	4700	4725	4698	4822
4	4027	4035	4835	4411
4	4035	4837	4836	4403
4	4035	4404	4835	4403
4	4035	4835	4838	4403
4	4801	3887	4839	4840
4	4801	4841	3887	4840
4	4801	4842	3887	4841
4	3891	4801	4803	3897
4	3884	4801	3897	4842
4	3983	3981	3814	3816
4	3983	4151	3987	4843
4	3987	4845	4844	4846
4	3987	4844	4151	4846
4	4152	4848	4847	4849
4	4152	4850	4848	4608
4	4152	4847	4851	4458
4	4152	4848	4850	4852
4	4154	4152	2334	2336
4	2336	4851	4152	4852
4	4481	4483	4480	4485
4	4482	4485	4025	4480
4	4026	4480	4025	4024
4	4853	4855	4854	4856
4	4733	4795	4735	4736
4	4019	4485	4025	4018
4	4018	4485	4025	4482
4	4857	4485	4858	4019
4	4025	4780	4024	4481
4	4025	4858	4780	4485
4	4859	4861	4860	4436
4	4859	4863	4862	4864
4	4859	4860	4861	4864
4	4011	4091	4863	4859
4	4865	4863	4011	4091
4	4090	4859	4091	4011
4	4866	4660	3028	3038
4	4867	4090	4438	4859
4	4867	4859	4091	4090
4	4868	4575	4226	4220
4	4574	4870	4869	4224
4	4569	4574	4576	4573
4	4574	4266	4226	4227
4	4574	4573	4226	4266
4	4574	4224	4871	4870
4	4574	4224	4226	4220
4	4872	4874	4873	4771
4	4872	4875	4764	4733
4	4872	4875	4876	4877
4	4610	4878	4604	4879
4	4648	4652	4531	4604
4	4611	4612	4646	4610
4	4790	4881	4880	4882
4	4610	4635	4648	4878
4	4610	4604	4532	4883
4	4610	4532	4604	4531
4	4610	4646	4648	4635
4	4884	4886	4885	4855
4	3841	3849	4498	3853
4	4073	3893	4075	3852
4	3852	4074	4887	4073
4	3841	3851	3852	3893
4	4027	4033	4028	4029
4	4028	4031	4888	4889
4	4028	4030	4888	4031
4	4027	4030	4028	4031
4	4028	4034	4031	4890
4	4277	4394	4057	4063
4	4277	4891	4063	4057
4	4277	4280	4394	4279
4	4892	4278	4893	4891
4	3898	3900	3904	3902
4	4894	2712	2707	2711
4	3904	3900	4895	3902
4	3904	4896	3901	3902
4	3908	4209	3904	3909
4	3904	4209	4208	4895
4	4897	4899	4898	4725
4	4638	4698	4725	4726
4	4725	4831	4700	4897
4	4833	4831	4822	4725
4	4725	4900	4698	4833
4	4725	4726	4901	4898
4	4902	4904	4903	4905
4	4902	4877	4906	4907
4	4215	4902	4906	4907
4	4216	3978	4215	4908
4	4908	3978	4215	3879
4	4909	4854	4853	4884
4	4910	4908	4907	4902
4	4215	4216	4902	4907
4	4902	4908	3879	4904
4	4681	3892	3885	4499
4	3885	4071	3887	4911
4	4912	4914	4913	4915
4	4499	3892	3885	3842
4	4626	4916	4038	4039
4	4045	4630	4038	4626
4	4917	4919	4918	4920
4	4626	4670	4044	4045
4	4921	4923	4922	4924
4	4924	4923	4922	4581
4	4924	4926	4925	4927
4	4924	4922	4921	4928
4	4924	4929	4925	4930
4	4924	4172	4922	4927
4	4924	4925	4929	4931
4	4917	4933	4932	4919
4	4934	4936	4935	4937
4	4935	4937	4938	4934
4	4935	4939	4937	4936
4	4935	4937	4940	4938
4	4941	4811	4938	4935
4	4935	4812	4942	4810
4	4943	4945	4944	4946
4	4947	4949	4948	4950
4	4945	4951	4943	4952
4	4943	4953	4952	4954
4	4943	4955	4953	4956
4	4943	4957	4955	4956
4	4625	4916	4626	4627
4	4625	4630	4632	4249
4	4671	4958	4628	4627
4	4669	4629	4626	4671
4	4625	4632	4038	4633
4	4036	4038	4039	4045
4	4626	4038	4045	4039
4	4038	4633	4518	4959
4	4037	4036	4515	4038
4	3881	4230	4237	4238
4	4037	4916	4039	4038
4	4038	4959	4518	4037
4	4960	4962	4961	4434
4	4960	4963	1941	1907
4	4233	3877	3876	3970
4	4960	4962	4449	4520
4	4960	4964	4433	4686
4	4433	4449	4962	4431
4	4965	3967	4966	3960
4	4965	4967	3967	3952
4	4965	4967	4658	4968
4	4969	2615	4970	2616
4	4969	2615	4971	4970
4	4969	4132	4133	4972
4	4969	4972	4133	4973
4	4969	4975	4974	4976
4	4027	4035	4033	4404
4	4835	4411	4977	4409
4	4977	4409	4978	4835
4	4835	4404	4979	4750
4	4033	4403	4035	4836
4	4835	4750	4403	4404
4	4835	4409	4979	4404
4	4835	4403	4978	4838
4	4050	4980	4475	4476
4	4050	4896	4475	4980
4	4047	4302	4052	4981
4	4048	4208	4049	4210
4	4047	4308	4048	4981
4	4471	4475	4050	4896
4	4050	4896	4208	4471
4	4208	4308	4471	4206
4	4308	4048	4208	4050
4	4858	4982	4241	4983
4	4858	4241	4485	4983
4	4025	4858	4019	4780
4	4858	4857	4984	4982
4	4019	4270	4985	4857
4	4985	4857	4270	4986
4	4984	4857	4858	4985
4	4987	4844	4756	4151
4	4987	4989	4988	4990
4	4990	4992	4991	4988
4	3881	3878	4234	4236
4	4993	4766	4994	4992
4	4155	4148	4990	4151
4	4155	4756	4148	4150
4	4994	4992	4990	4995
4	4990	4766	4148	4756
4	4194	4996	4281	4270
4	4269	4194	4281	4270
4	4194	4196	4286	4199
4	4194	4286	4997	4199
4	4998	4196	4286	4999
4	4286	4999	4196	4194
4	5000	1906	1863	1817
4	4194	4196	3996	4999
4	4194	4008	3996	4195
4	3823	4342	3827	5001
4	3824	3826	3825	4366
4	3826	5002	4373	4339
4	3826	5004	5003	5002
4	3826	4366	4373	5002
4	3826	5003	5005	5006
4	5007	3038	3037	577
4	3920	3915	3914	3923
4	3920	4655	5008	5009
4	4130	4128	5010	5011
4	5009	4966	4655	5008
4	4965	4655	4661	5012
4	4655	4966	5013	5012
4	4966	5014	5009	5013
4	4922	4927	5015	5016
4	4580	5018	5017	5019
4	4922	5015	4172	4171
4	4922	5020	4928	5021
4	4922	5021	5016	5022
4	4922	4170	5020	4173
4	4922	4170	5023	5020
4	4330	5025	5024	5026
4	4431	4306	4434	4432
4	4089	4431	4437	4449
4	3888	5027	4681	5028
4	3888	5029	3892	5030
4	3888	5030	4681	5027
4	3884	3890	3888	3886
4	4681	5027	5031	5032
4	4681	3885	3892	3888
4	5028	4679	4678	3888
4	3884	3888	3889	3892
4	4681	4678	5028	5032
4	3888	5027	4677	5030
4	3809	3810	3805	5033
4	4866	3028	3027	3038
4	3805	3810	4021	4022
4	3805	3807	4021	5034
4	3810	3947	5033	3809
4	3810	4793	3806	5034
4	3810	3809	3806	3948
4	3810	3947	5035	4023
4	3810	4793	5035	3948
4	3949	3947	5035	3948
4	5035	3948	3947	3810
4	3813	3984	3816	3993
4	3983	3813	3814	3812
4	3813	3993	3816	3815
4	3811	3816	3814	3818
4	3811	3817	3812	3813
4	4330	5036	5024	5025
4	3817	4598	4599	3815
4	3894	4149	4148	3896
4	3894	3986	3812	5037
4	3894	5038	4148	5039
4	3894	3896	4148	5038
4	3894	4148	4994	5039
4	3894	4994	4995	5039
4	3894	3986	5040	4995
4	3894	5039	4995	5040
4	4330	5041	2132	2650
4	5042	5044	5043	5045
4	5042	5046	5044	5047
4	5042	5049	5048	5050
4	5042	5051	4675	5050
4	5051	5052	5042	5043
4	5052	5049	5048	5042
4	5042	5050	5053	5054
4	5055	5057	5056	5058
4	4319	4327	4317	4329
4	5059	3027	3026	3037
4	5060	5061	4731	4133
4	5058	4144	5061	5062
4	5058	5064	5063	5056
4	5065	5067	5066	5068
4	5065	5069	4472	5066
4	5065	4691	5068	5070
4	5071	5072	4541	5073
4	5071	5075	5074	5073
4	5071	5076	4541	5072
4	5071	5074	5075	5077
4	5071	5077	5078	5076
4	5079	5081	5080	5082
4	5080	5082	5081	5083
4	5083	5085	5084	5086
4	5081	4341	5084	5083
4	5083	5088	5087	5089
4	5083	4341	5087	5088
4	3979	5090	3970	2757
4	3970	2757	5090	3972
4	3972	5090	3974	5091
4	3972	2752	5092	2753
4	3972	2753	5092	2757
4	3972	5091	2753	5090
4	3972	4782	5092	2752
4	5093	5094	4396	4398
4	4396	4398	5094	4400
4	5094	5095	4396	4400
4	4396	5087	5096	5097
4	4396	5087	5098	5096
4	4400	4397	5098	4396
4	4396	4350	5087	5099
4	4396	4401	5087	4350
4	4396	5087	5097	5099
4	4604	4878	4648	4506
4	4611	4652	4531	4648
4	3954	5101	5100	5102
4	3954	5103	3955	5100
4	3987	4151	4844	4843
4	5104	5044	5105	5106
4	4756	4987	4990	4989
4	3987	5107	4844	4845
4	4844	4845	4651	4846
4	4844	4651	5108	5109
4	4844	4987	4989	5108
4	4215	3970	3978	4216
4	4215	4906	4902	3879
4	4215	4907	4906	4217
4	5110	2716	2711	2715
4	4241	4778	4242	5111
4	4242	4246	4983	4244
4	4241	5112	4243	4982
4	2223	4851	5113	4153
4	4329	5041	2132	4330
4	5114	4099	5115	4001
4	5116	4001	5117	5118
4	4446	4001	5114	5118
4	5119	4581	5120	5121
4	5116	5118	5117	5122
4	5116	4001	5115	5123
4	5116	5118	5122	5124
4	5125	5126	4246	5127
4	5125	5127	4253	4748
4	5125	4958	5128	4676
4	4676	4958	4627	5125
4	4748	5129	4253	5125
4	5125	5130	5128	5131
4	4251	4958	5131	4253
4	5132	4851	4847	5113
4	5133	5073	5072	5074
4	4534	4850	4852	5134
4	5133	5074	5135	2872
4	5133	2873	5135	5136
4	5132	4931	5137	5138
4	4256	4743	4711	4254
4	4711	4983	4704	4244
4	4742	4743	4252	4256
4	4743	4254	4258	4704
4	4743	4256	4244	4252
4	4244	4983	4704	5139
4	4742	4743	4256	4258
4	5140	5142	5141	4668
4	5141	4668	5143	5140
4	5143	5140	3925	5141
4	5141	2692	5103	3925
4	5141	5103	3956	5142
4	2693	3958	3956	5141
4	5144	5145	4784	5146
4	5141	5147	4668	5142
4	4516	5148	4518	4519
4	4517	4518	4633	4519
4	4518	4959	5148	4037
4	4518	4037	4513	4515
4	4129	5150	5149	5151
4	4516	4527	5148	5152
4	4785	5153	5150	5151
4	4672	5128	4251	4671
4	4669	4671	5046	4672
4	4671	5128	4251	4958
4	4626	4676	4671	4627
4	5154	2149	2066	2065
4	4671	5046	5128	4676
4	4628	4627	4626	4671
4	4785	5156	5155	5153
4	5157	5158	4598	3922
4	3922	4598	3921	3988
4	3920	3922	3914	3916
4	3922	3993	5158	4598
4	3916	5160	5159	4661
4	3916	3921	3922	5157
4	3916	3922	3917	5161
4	3916	5161	4659	5157
4	3914	3913	3927	3915
4	3916	3920	5160	4661
4	5162	4895	4208	4206
4	5162	4471	4208	4896
4	5162	5163	4206	4471
4	5162	5163	4471	4477
4	5162	5164	4471	5165
4	5162	5165	2018	5164
4	5162	4895	3902	4896
4	3889	4719	4076	3892
4	3891	4802	5166	4800
4	4902	4877	4907	4910
4	3891	4802	3887	4071
4	3888	5029	3889	3892
4	3884	3891	4071	3893
4	3884	3888	3885	3886
4	5167	4805	3897	3889
4	5168	2199	5169	2364
4	5168	5170	406	2017
4	5168	2017	4072	5170
4	5168	4072	4098	5170
4	5171	576	3037	3036
4	4517	4519	5172	4520
4	3975	5144	5146	5173
4	4048	4981	4307	4305
4	3971	3980	4785	4783
4	4047	4053	4981	4052
4	4516	4302	4521	4052
4	4206	4306	4207	4048
4	3814	3822	4738	3812
4	3983	3987	3816	4843
4	3812	3895	3985	4151
4	3814	3818	3816	3981
4	3983	3981	3987	3982
4	5174	5175	3903	5176
4	3899	3900	5177	5174
4	5174	3899	3903	5175
4	5174	4948	3909	3900
4	5174	3903	3909	5176
4	3909	5178	5176	4211
4	4784	3975	5144	5146
4	5176	3910	3903	3909
4	5179	5181	5180	5182
4	3909	4211	5176	3847
4	3908	4211	4212	4209
4	5058	5057	5183	5055
4	3910	3847	3854	3909
4	4499	3847	5176	3843
4	3884	3886	3887	4842
4	3842	3885	3846	3893
4	3885	4911	3887	5184
4	4973	5186	5185	5060
4	3842	4499	4680	3843
4	5187	5189	5188	5190
4	5187	4832	5191	4751
4	5187	5193	5192	5194
4	5187	5191	5195	4751
4	5062	4730	4731	5196
4	5197	5199	5198	5187
4	5187	5189	5199	5198
4	5187	5194	5192	5200
4	5187	5192	5197	5200
4	4594	4595	5201	5202
4	4594	5203	4598	4596
4	4594	5204	4599	5205
4	4594	5157	4598	5203
4	4594	5205	4599	5158
4	4594	4598	5157	5158
4	4660	3028	3038	3039
4	5206	4283	4284	5207
4	5207	4368	5208	5209
4	5207	5208	4368	5210
4	5207	5211	4284	5212
4	5207	5208	5212	4284
4	5207	5211	4282	4284
4	5056	5055	4133	4974
4	4124	4133	4123	4132
4	5061	5213	4929	5214
4	4133	5060	4134	4136
4	5215	5216	4731	5055
4	4731	4133	5061	5058
4	4133	4123	4132	4974
4	4317	4318	4322	4320
4	4653	3035	3036	3025
4	4458	4577	4321	4166
4	4328	4171	4166	4577
4	4321	4153	4458	4323
4	4317	4328	4321	5217
4	4902	4877	4910	4905
4	4902	4877	4903	3879
4	5218	5216	5219	5220
4	5137	5138	4931	4145
4	4903	4877	4873	4876
4	4876	5221	4903	5222
4	4877	3879	5222	4903
4	4906	5222	4877	3879
4	5223	4781	5224	5225
4	5226	5228	5227	5076
4	5227	5076	5228	5223
4	5229	2720	2715	2719
4	5223	5227	4487	4781
4	5223	5225	5230	5231
4	5230	5231	5128	5223
4	5223	5227	5131	5228
4	5223	5131	5227	5231
4	5232	5076	4541	5224
4	5072	4541	5232	5076
4	5233	5234	5232	4541
4	5232	4541	5234	5224
4	5224	4541	4486	4487
4	5224	4487	4486	4773
4	4626	4045	4044	4039
4	4626	4670	4045	4629
4	5235	4040	4513	4036
4	4036	4039	4044	4045
4	4044	5236	4670	3929
4	5237	5238	4798	5035
4	5231	5240	5239	5241
4	5238	5242	4798	5243
4	5243	5244	4272	5238
4	5245	5128	5246	5043
4	5243	4798	5035	4793
4	5243	5247	5242	4798
4	4023	5244	4272	5243
4	5243	5034	5035	4023
4	5236	4045	4507	4042
4	5236	4670	3929	5248
4	5236	5248	3929	4066
4	5236	3931	4508	3837
4	5236	4508	3931	4042
4	5236	4066	3929	3931
4	4558	5249	3864	4562
4	4555	4558	4561	4557
4	4558	3856	5250	4557
4	4555	4565	4558	3856
4	4558	3856	3864	3882
4	4558	3856	3882	5250
4	4715	4719	4077	5251
4	3889	4077	4076	4719
4	3889	4805	4077	5252
4	3891	4077	3889	3897
4	3889	3897	5167	3890
4	5223	5227	5076	4487
4	3897	3889	4805	4077
4	5253	5255	5254	5256
4	5253	5258	5257	5256
4	5253	5255	5259	5260
4	5253	5256	5257	5261
4	5253	5259	5261	4389
4	4969	4929	4925	5061
4	4969	4971	4132	4972
4	4969	4973	4970	4972
4	4924	4926	4927	5016
4	4924	4930	4925	4926
4	4925	4973	4930	4970
4	4925	5218	4926	4973
4	4929	4931	5214	4924
4	3855	3862	3861	3863
4	3862	3864	4904	3863
4	4982	5262	4004	5263
4	3862	3857	5264	3880
4	4244	4242	4241	4983
4	3855	3857	3862	3864
4	3862	5264	3857	3860
4	5232	5265	5133	5266
4	5133	5232	5074	5072
4	5267	5266	5268	5269
4	5104	5225	5074	5267
4	5077	5074	5104	5225
4	5267	5135	5104	5136
4	5171	2715	5270	5110
4	5267	5074	5104	5135
4	5271	4892	5272	4239
4	5273	4239	5274	4276
4	5273	5276	5275	5274
4	5273	5277	5272	5271
4	5273	4239	4276	5271
4	5273	4276	5278	5271
4	3865	3875	4760	3869
4	4766	5280	5279	5281
4	5279	4766	4760	4762
4	5282	4481	4246	4485
4	5270	575	3036	3035
4	4760	4766	5281	5283
4	3867	3872	3865	3866
4	4888	3872	5284	5279
4	3905	1616	5285	5286
4	3905	5286	1623	1616
4	3907	5287	3905	4213
4	3905	5287	5285	4213
4	3905	4213	5288	3912
4	5289	5291	5290	5292
4	5289	5293	5291	5292
4	5289	5294	5290	4787
4	5295	5290	5289	5294
4	5289	5295	5294	5296
4	5289	5296	5297	5293
4	3855	3856	3857	3864
4	3855	3856	3864	4565
4	3856	3857	5298	3858
4	3856	4565	3858	5299
4	3999	4001	5300	4000
4	4000	5302	5301	4002
4	4000	5301	5303	4002
4	5300	4000	4001	5304
4	4000	5303	5302	5305
4	4000	5302	5300	5305
4	4243	5111	4524	4862
4	5192	4292	4296	5080
4	5192	4296	5082	5080
4	5192	5200	5306	5307
4	5200	5079	5307	5082
4	5187	5200	5191	5194
4	5192	4292	5306	5308
4	5192	5306	5200	5194
4	5309	4410	4977	4032
4	5309	4338	5310	4032
4	5309	5238	5244	5242
4	5309	5311	5244	5312
4	5312	5311	4335	5309
4	4461	4453	4451	4356
4	4356	4355	4461	4459
4	4858	4982	4983	4857
4	5313	4451	4357	4992
4	4461	4991	4462	4426
4	5161	5205	5314	5315
4	4357	4361	4992	4461
4	4461	4991	4992	4462
4	5316	4356	4359	5314
4	5200	5317	1834	5318
4	5200	1834	5307	1768
4	5080	5082	5192	5307
4	5200	1768	5307	5079
4	4047	4981	4048	4302
4	5319	4419	4453	5320
4	4051	4055	4054	5321
4	4051	4468	4052	5152
4	4472	4051	4468	4476
4	4051	4472	4468	5322
4	4051	4054	4476	5322
4	4959	5323	4519	5324
4	5161	5316	5314	4456
4	5319	5320	5316	4659
4	4959	4037	4043	5325
4	4043	5325	5326	4959
4	4959	5325	5326	5327
4	4959	4916	5323	5327
4	3827	4347	4342	4372
4	5001	4347	4342	3827
4	3827	4347	4372	5328
4	3827	5329	3828	5001
4	3827	4372	5330	5328
4	3827	5330	3829	5331
4	5331	3828	3827	5329
4	5332	5334	5333	5335
4	5332	5336	5283	4991
4	5332	4991	5283	4429
4	2658	2119	562	561
4	4597	2724	2719	2723
4	5337	5338	3035	3034
4	4043	5326	4039	4916
4	4043	5339	5326	5340
4	4036	4043	4037	5235
4	4043	5325	4037	5341
4	4121	4218	4122	4118
4	4121	4119	4120	4263
4	4121	5342	4120	4122
4	4221	4121	4229	4218
4	5343	4993	4376	5280
4	5281	4766	4760	5279
4	5281	4375	4766	5280
4	4062	5345	5344	4435
4	5280	5346	5279	5347
4	5280	4766	5348	5343
4	4048	4208	4050	4049
4	4048	4304	4210	4049
4	3904	3909	4209	3900
4	3907	3908	3909	3911
4	4206	4048	4208	4308
4	5274	5344	5276	5349
4	3904	4895	4208	4896
4	4208	4206	4895	4209
4	5350	5351	3933	4080
4	3933	4160	5350	4080
4	3933	4504	4065	5352
4	3933	3934	3935	5353
4	3933	5353	4065	3934
4	4992	4451	3984	5313
4	5354	5356	5355	5357
4	3894	4994	4990	4995
4	5358	5359	4992	4988
4	4990	4995	4992	5358
4	4992	4990	5358	4988
4	5360	5290	4790	4934
4	5360	5290	5361	5362
4	5360	4937	5363	5364
4	5360	5362	5361	5365
4	5360	4937	4790	5363
4	5355	5367	5366	4276
4	5093	5368	5099	5369
4	5093	5370	5368	5371
4	5093	5370	4398	5368
4	5099	5095	4396	5094
4	4396	5094	5093	5099
4	5093	4114	5372	5094
4	4114	5371	5093	5372
4	4396	4395	5093	4398
4	4676	5373	4675	5051
4	4673	4675	4676	5373
4	5245	4676	5046	5051
4	4674	4675	5050	5047
4	5042	5049	5050	5054
4	5051	5373	4675	5374
4	5051	5043	5245	5375
4	5051	5050	5374	4675
4	5042	5051	5046	4675
4	4406	5377	5376	4405
4	4405	5199	5006	5378
4	5006	3825	4405	5378
4	4402	4405	5199	4749
4	4768	3830	4028	4405
4	4402	4750	4751	4752
4	4837	5377	4406	4836
4	4406	4836	5377	4405
4	5377	5006	4405	5199
4	4402	5378	3830	5195
4	4003	4197	5379	4614
4	4003	4005	5380	4007
4	4195	4197	4003	3996
4	4003	4614	4613	4197
4	5194	5382	5381	5193
4	5200	5191	5383	5384
4	5191	5200	5318	5194
4	5194	5385	5317	5318
4	5194	5193	5306	5382
4	5355	5366	5367	5386
4	5191	5187	5194	4832
4	5387	5176	5174	5178
4	5174	3900	3909	3903
4	3903	5287	5388	5286
4	3903	4108	5388	5287
4	5174	3909	5178	5176
4	3903	5175	4108	5389
4	5174	5176	5390	5175
4	3903	5389	5176	5175
4	4979	4752	4750	4404
4	4979	4752	4404	5391
4	4979	5392	4408	4409
4	4979	4978	4750	5393
4	4979	5392	4978	5394
4	4654	4392	4653	5059
4	4654	5059	5395	4392
4	4654	4647	5110	5396
4	4654	5229	4652	5396
4	4654	4648	4647	5396
4	4654	5396	4652	4648
4	4824	5397	5190	4827
4	5271	4276	5366	5398
4	4824	5189	4749	4825
4	5355	5366	5275	4276
4	5399	4823	5400	4749
4	4076	4075	3891	3892
4	3841	3846	3845	3851
4	3884	3891	3889	3897
4	3884	3885	3893	4071
4	3842	3843	4680	3844
4	4992	4988	4451	4462
4	4888	4889	5284	3872
4	4332	4031	3874	5284
4	3874	5284	3875	4332
4	5284	4032	4031	4030
4	5284	4031	3874	4889
4	5000	5401	4802	4074
4	3841	3853	3854	3849
4	3852	4310	5402	4498
4	4074	4802	5000	5166
4	3852	3851	5403	5401
4	3852	3851	3853	5403
4	3841	3845	3853	3851
4	3885	4499	3846	5404
4	4073	3891	4074	5166
4	3885	4499	5404	4678
4	3852	4310	4073	4887
4	5371	5369	5372	5405
4	5372	5097	5099	5094
4	5093	4114	5094	5406
4	5407	5408	1682	1756
4	5372	5409	4741	4740
4	5372	5409	4114	5410
4	5372	4114	5411	5094
4	5174	4948	5412	5177
4	5413	5414	4886	5415
4	5177	5416	4948	5412
4	5412	5416	5417	5177
4	5338	574	3035	3034
4	5412	5418	4895	5419
4	5413	4886	4736	5415
4	5412	5419	4895	3900
4	4701	4721	5420	5421
4	4701	5423	5422	5424
4	4701	4703	4721	5425
4	4701	5426	5425	5421
4	4068	4689	4159	4508
4	4081	4164	4159	4162
4	3932	4675	3935	5050
4	3932	3835	3933	3930
4	4068	3930	3931	4164
4	4068	4508	3931	3836
4	4799	4640	4792	5427
4	4792	4797	4727	5428
4	4638	4727	4641	4792
4	4728	4640	4639	5429
4	4728	2848	4636	4640
4	5080	5086	5430	4296
4	5083	5086	4296	5085
4	4296	5430	5080	5431
4	4296	5431	5080	4292
4	4296	4299	5085	5369
4	5369	5086	4296	5430
4	4094	4745	4860	4015
4	4094	4437	4860	4745
4	4094	4015	5432	4746
4	4094	4437	4746	4089
4	4859	4094	4090	4436
4	4859	4094	4011	4090
4	4094	4014	4085	4089
4	4060	5433	4537	4538
4	4240	4060	5434	4537
4	4061	5434	4240	4060
4	4537	5354	5433	5434
4	4537	5435	5354	4240
4	4550	4551	5395	5436
4	4550	4589	4647	4634
4	5413	4736	4886	2944
4	4550	5437	5301	4587
4	4550	4587	4586	4634
4	5117	4001	3999	4002
4	5117	5122	5118	5142
4	4668	5140	5118	4001
4	5117	4668	4667	5147
4	5117	5438	5142	5147
4	5117	5122	5142	5438
4	5413	2935	4886	5414
4	3991	3818	3816	3815
4	3991	3815	3992	3990
4	3991	3815	3816	3992
4	3991	5439	3816	3981
4	5440	5146	4786	4129
4	3971	4784	4129	4786
4	4129	5441	4784	4141
4	5442	5277	5278	4191
4	5443	5444	4191	5442
4	5413	2945	4886	2935
4	5442	5355	5445	5446
4	5413	4886	2945	2944
4	5447	5446	5386	5448
4	5442	5355	5386	5275
4	5442	5444	5446	5449
4	5442	5445	5275	5450
4	5442	5449	5446	5450
4	4955	5452	5451	5453
4	4955	5454	5451	5452
4	4957	5451	4955	5454
4	4955	5454	5452	5455
4	4955	5455	5452	5456
4	4955	5457	5452	5453
4	5458	4086	4087	5459
4	4086	4433	4087	4089
4	4086	5458	4087	4433
4	4086	5461	5460	4964
4	4419	5463	5462	4421
4	4421	4419	4417	5462
4	4417	4418	4415	5447
4	5464	5462	5465	4417
4	4058	4536	4240	4540
4	4417	4415	4421	5465
4	4417	5464	5447	5465
4	4417	4419	4418	5464
4	4327	5026	4580	4330
4	4327	5026	5024	5466
4	5467	5469	5468	5433
4	4165	4166	4328	4171
4	4321	4153	4323	4322
4	4166	5017	4327	4326
4	4327	5017	4580	5466
4	4166	4327	4580	4328
4	4329	4327	4317	4328
4	4317	4324	4319	4320
4	4327	4324	5024	4319
4	4443	5470	5206	5208
4	5471	4324	5466	4326
4	4638	4727	4792	4796
4	4636	4728	4639	4637
4	4636	4638	4641	4637
4	4636	4728	4637	4644
4	4639	4637	4728	5429
4	2854	2853	4644	5472
4	4644	5472	2853	4728
4	5429	5472	4637	4728
4	3809	4637	5429	5472
4	4801	4800	4314	4839
4	3884	4801	3891	3897
4	5412	5473	5418	5416
4	5184	5474	3887	4841
4	3887	4911	5475	4526
4	3887	5474	4911	4526
4	3932	3936	4674	3930
4	3935	3936	5351	5476
4	3932	3935	4675	3936
4	3935	5374	5050	4675
4	3935	3936	5476	5374
4	3933	5352	3935	4046
4	3935	5353	5477	5352
4	3932	3935	3934	5478
4	3935	5050	5479	5478
4	4166	4580	4327	5017
4	2621	5480	5018	4580
4	4165	4580	4166	4167
4	4165	4328	4166	4580
4	4580	4579	2635	2621
4	4327	5466	4326	5017
4	4579	4328	4580	4330
4	4580	2635	4579	4330
4	4044	3929	4674	3930
4	3932	4674	3929	3930
4	3932	5050	4674	4675
4	4674	4673	3936	4675
4	4674	5047	5050	5481
4	4674	5481	5482	5047
4	5483	5484	1626	5485
4	5484	1626	5486	1625
4	4264	4344	4345	4227
4	4681	5031	5484	5032
4	5484	1632	5487	5483
4	5486	1625	5032	5484
4	4499	5484	5485	5486
4	4499	5488	5484	4678
4	4159	4162	5489	5490
4	4688	4691	4159	4040
4	5491	4204	4761	4198
4	5491	5493	5492	3869
4	4337	5491	5492	4193
4	4758	3869	4761	4198
4	4761	4198	3869	5491
4	5491	3875	5493	3869
4	5162	5419	4895	5418
4	4895	4206	4950	4209
4	5412	4895	4948	3900
4	5412	5418	5419	5494
4	4950	4948	4895	4209
4	5162	5418	4895	5495
4	4895	4209	4948	3900
4	5188	5496	5198	5497
4	4293	4301	5498	5089
4	5499	4301	5498	4293
4	4283	4539	4059	5500
4	5192	4290	4292	5308
4	4290	4289	4292	5308
4	5176	5175	5389	5485
4	4499	3843	5176	5488
4	5176	3843	3847	4211
4	3909	3847	5176	3910
4	4499	5176	3847	5389
4	5501	2076	2183	2591
4	5502	5390	5483	5485
4	5502	4108	5175	5389
4	1626	5485	5502	5483
4	5502	4105	4108	5389
4	5502	5390	5175	1620
4	5502	5486	4105	5485
4	4544	5504	5503	2861
4	2862	2861	5505	5503
4	4273	5506	4018	4272
4	4544	4542	3943	5503
4	4544	5505	3943	5429
4	5507	5105	5047	5508
4	5044	5045	5508	5106
4	5044	5053	5047	5508
4	5042	5054	5053	5045
4	5044	5104	5509	5230
4	4480	4486	4773	4026
4	5047	5509	4672	5044
4	5510	4542	5503	5511
4	5042	5044	5045	5053
4	5044	5043	5104	5230
4	5046	5230	5044	4672
4	5042	5044	5046	5043
4	4948	4949	4211	4209
4	4948	4947	5178	4949
4	3898	1630	3902	379
4	4226	5512	4219	5513
4	4574	4227	4226	4224
4	4226	4266	5513	4225
4	4574	5514	4227	4223
4	4574	4266	4576	4573
4	4136	5515	4138	4137
4	4135	4125	5516	5179
4	4135	5215	4136	5517
4	5517	5518	4288	4135
4	5519	4288	5517	5518
4	4135	4136	4137	4288
4	4135	5516	5518	5179
4	5148	4303	5520	5324
4	5148	5152	4527	5521
4	5148	5522	5521	5341
4	5148	4303	5152	5520
4	5354	5523	5355	5524
4	5525	5356	5354	5434
4	5526	1870	1818	1866
4	5354	5525	4061	5274
4	5354	5355	5527	5524
4	5354	5434	4240	4061
4	5354	5527	5355	4276
4	4239	4061	5354	4240
4	5354	4239	4276	5274
4	5354	4240	4274	4276
4	5354	4274	4240	5435
4	5528	5530	5529	4343
4	5528	5531	4379	5529
4	5528	5531	4399	4057
4	5528	5529	5370	5531
4	4912	5364	4909	5532
4	4912	5534	5533	5535
4	4912	4853	4909	4854
4	4912	4913	5536	5535
4	4657	5463	4659	5320
4	3916	4661	5159	4658
4	3922	5157	5161	3916
4	4965	4968	4657	4966
4	4657	4656	5463	5320
4	3916	4657	4655	4661
4	5354	4274	5527	4276
4	5442	5355	5446	5386
4	5355	5386	5275	5366
4	5355	4276	5275	5274
4	5537	5539	5538	5540
4	5540	4789	5541	5542
4	5540	5539	5543	5537
4	5540	4789	4787	5291
4	5540	5544	5541	5545
4	5540	5541	4789	5545
4	5361	5546	5365	5362
4	5365	5536	5361	4912
4	4912	4853	4914	4909
4	5547	5548	4912	5364
4	4912	5550	5549	5548
4	5361	5534	5551	5295
4	5534	5548	5295	5361
4	5549	5295	5534	5548
4	5361	5290	5552	5295
4	5553	5554	5271	5555
4	5553	5554	4371	5556
4	5533	5550	5549	4912
4	5546	5536	5551	5361
4	5361	5536	5365	5546
4	5549	5295	5551	5534
4	5224	4487	4773	4781
4	4750	4403	4825	4829
4	4978	5394	5393	4979
4	4024	4019	4775	4780
4	4751	5558	5557	4831
4	5393	5558	5557	4751
4	5557	5394	5393	4978
4	4979	4750	4752	5393
4	4979	4404	4408	5391
4	5559	5561	5560	5562
4	3898	3899	3903	3900
4	3899	1622	5286	5175
4	3899	5177	3900	5494
4	3898	3899	1630	1623
4	3898	3899	1623	5286
4	1628	5390	1621	3899
4	3939	3940	4541	5563
4	5504	3941	4544	4542
4	3943	5511	5505	5503
4	4544	3943	5564	5429
4	3943	3937	3948	3947
4	5033	3809	3947	3943
4	3943	5565	5511	4542
4	3937	4799	3948	3949
4	5338	574	2723	2719
4	3943	5472	3809	5429
4	5505	5511	3943	5472
4	3947	3943	3809	3948
4	5227	5566	5076	4487
4	5223	5231	5128	5131
4	5227	4484	4487	4481
4	5227	5231	4250	4781
4	5227	4246	4242	4250
4	4776	4781	5227	4242
4	4588	4590	4585	5436
4	4585	4589	4588	4586
4	4588	2704	4591	2703
4	4585	4588	2708	2704
4	4588	4826	2703	4591
4	3995	3996	4003	4613
4	5567	4369	4381	5568
4	3998	5570	5569	5571
4	3996	4271	5572	3997
4	3996	5573	5571	4196
4	3996	3998	5573	4613
4	4574	4575	4871	4220
4	3852	3893	4075	3844
4	3848	4311	3852	3850
4	4682	3853	4498	4434
4	3854	3853	4683	4682
4	4682	4434	4649	3854
4	3852	5402	3853	4498
4	3853	4685	4498	5402
4	4682	3853	4684	4685
4	5574	4684	3845	5403
4	3845	5403	4684	3853
4	3898	379	3902	378
4	4570	4918	4932	5575
4	3907	3905	3904	3912
4	4431	4306	4962	4434
4	3904	3902	4895	4896
4	5576	2479	2408	2480
4	4895	3900	5419	3902
4	4820	5578	5577	180
4	4820	2983	4817	4142
4	4820	5578	179	4142
4	4820	4817	2983	2993
4	4203	5579	4622	4620
4	4621	5581	5580	5582
4	4621	5581	5560	5580
4	5561	4624	5581	5560
4	5583	5585	5584	5586
4	4201	4202	4624	4443
4	4621	4443	5470	4624
4	5208	5206	5587	5470
4	5208	5587	5588	5589
4	5208	5590	5589	5588
4	5207	5208	5206	5209
4	5207	5208	5210	5212
4	5208	5206	5209	5587
4	5591	5588	5208	4368
4	5208	4368	5210	5591
4	4379	4345	4264	4343
4	4379	4263	4264	4345
4	4379	4120	4119	4263
4	5528	5567	4343	4379
4	4380	5568	4381	4378
4	5567	5568	4381	4380
4	4379	5531	4378	4119
4	4554	5592	4549	5593
4	4554	5593	4549	4703
4	4554	5592	4545	4549
4	4597	2728	2723	2727
4	3932	3935	3933	3934
4	5050	2884	5478	5053
4	3935	5478	5353	3934
4	3935	5353	5478	5479
4	4700	4699	4696	5594
4	4266	5596	5595	4576
4	4221	4224	4226	4227
4	4221	4226	4219	4225
4	4344	5598	5597	5599
4	4266	5595	5600	4265
4	4574	4576	4266	5514
4	2801	4218	4122	4222
4	4222	5601	4869	4223
4	4221	4223	4224	4227
4	4221	5601	4223	4121
4	4222	4870	4869	5602
4	4222	2800	4122	2801
4	4396	5098	5087	4401
4	5603	3024	3023	3034
4	5087	4350	5085	5099
4	5087	5089	5096	4301
4	5083	5087	4341	4350
4	5087	5004	4341	4401
4	4282	5567	4283	4059
4	4056	4380	4062	5604
4	4056	4435	4282	5604
4	5207	4282	4283	4284
4	5207	5206	5208	4284
4	4435	5211	4284	4282
4	5345	5211	4435	5604
4	5207	4282	5211	5210
4	5207	5209	5206	4283
4	4348	4340	4351	4341
4	4351	4339	4341	4340
4	4395	4383	4351	4399
4	4379	4263	5529	4120
4	4395	4394	4397	4383
4	4351	4339	4397	4401
4	5528	5605	4382	4399
4	5605	4059	5528	4382
4	4382	4399	5605	5606
4	4382	4063	4394	4383
4	4382	4383	5606	4540
4	4382	4394	4399	4383
4	4606	4609	5607	4325
4	5607	2729	4605	4606
4	4606	5607	2733	4607
4	4569	5608	4567	4566
4	4647	2717	4589	2716
4	4647	4589	2713	4634
4	4654	5395	4647	5609
4	4647	5395	5110	4589
4	4647	5609	5395	4551
4	4550	4586	5395	4589
4	4647	2713	4589	2717
4	5610	5543	4703	4702
4	5611	4707	4702	5610
4	5612	573	3034	3033
4	4632	5614	5613	5615
4	5616	1748	1798	1738
4	5610	4721	4707	4702
4	4729	4812	4732	4730
4	4729	5216	4731	5215
4	5517	4770	4812	4729
4	4729	5517	4288	4136
4	4729	5517	5215	4732
4	5617	5619	5618	5620
4	5617	5622	5621	5623
4	5617	5618	5623	5621
4	5617	4853	5624	4909
4	5617	5619	5624	5625
4	5617	5626	4914	5622
4	5617	5625	5624	5626
4	5617	5622	5623	5626
4	4522	5613	5614	4529
4	5215	5627	4123	5055
4	4135	5215	4123	4136
4	5216	4136	5215	4729
4	4729	4732	5215	4731
4	4729	5215	5517	4136
4	4138	5628	4140	5629
4	4124	4138	4134	4140
4	4134	4138	4124	4136
4	4138	5181	4146	5179
4	4138	5629	4140	4146
4	4138	4146	5181	5630
4	5119	5137	5631	5132
4	5119	4847	4458	4169
4	5119	5120	4581	4168
4	5119	5632	4168	4849
4	5119	5137	4183	5631
4	5119	4458	4847	4849
4	5119	5137	5121	4183
4	4129	4785	5440	5150
4	4129	5151	4785	5150
4	4139	4140	5633	4141
4	4131	4128	4127	4139
4	4139	5633	4126	5634
4	4127	4139	4140	4126
4	4127	4141	4129	4784
4	4127	4130	4128	4125
4	4129	4141	4139	5149
4	5192	5188	4290	5308
4	4290	4289	5188	5497
4	5089	5197	5082	5088
4	5197	5192	5089	5082
4	4293	5083	4301	5089
4	5089	5003	5004	5635
4	5188	4290	5198	5192
4	5089	5004	5003	5005
4	5096	5098	5004	5087
4	5089	5635	5004	5096
4	5087	5089	5004	5096
4	2545	2584	4463	5333
4	4249	4958	5129	4625
4	5333	5636	2588	2584
4	5333	2588	5637	2580
4	5333	5638	5336	2499
4	5332	5333	5637	5336
4	5333	5638	5637	5336
4	5333	2499	5336	2545
4	4246	5227	4242	4481
4	4242	4481	5227	4776
4	4245	4242	4247	4243
4	4245	4246	4244	4252
4	4241	4982	4244	4983
4	4242	4485	4780	4241
4	5639	5205	4599	5204
4	5639	5640	5313	5314
4	5639	5640	5314	5205
4	4239	4240	4276	4275
4	4891	4892	4277	4063
4	4891	4892	4239	4893
4	5274	5354	4239	4061
4	4239	4063	4240	4275
4	5539	5543	5537	4549
4	5540	5539	5291	5543
4	5291	5641	5293	5539
4	5539	5642	4533	5544
4	5539	5537	4547	4549
4	5538	5540	5539	5544
4	5539	5538	4533	5537
4	4859	4011	4094	4860
4	4860	4015	4248	4012
4	4860	4248	4862	4012
4	4860	5643	4248	4249
4	4018	4017	4023	4016
4	4025	4019	4024	4780
4	4512	5644	4467	4530
4	4773	4775	4024	5234
4	5234	4026	4024	4773
4	4776	4024	4773	4775
4	5326	4959	4916	4043
4	4262	4264	4227	4265
4	4265	4266	4225	4268
4	4264	5567	4369	4381
4	4264	4265	4268	4368
4	4264	4369	5567	4368
4	4525	4515	4513	4535
4	4513	5235	5521	4512
4	4515	4518	4525	4513
4	4513	4515	4045	4535
4	4512	4513	5235	4040
4	4450	4464	4451	4452
4	4453	4454	4452	4456
4	5359	4451	3984	4992
4	4451	4462	4988	4464
4	4992	4988	4462	4991
4	4992	4361	4993	4375
4	5313	4992	4995	3984
4	4451	3984	4452	5359
4	5290	4934	5645	5545
4	5289	5292	5290	5646
4	5290	5545	5292	5291
4	5360	4937	4934	4790
4	5646	5289	5295	5290
4	5290	5645	4934	5552
4	5319	5648	5647	5462
4	5319	5648	5649	5650
4	5319	5649	5648	4659
4	4459	4453	5464	4418
4	4459	4355	4418	5464
4	4450	4461	4459	4453
4	4461	4462	4459	4426
4	4461	4426	4355	4361
4	4450	4451	4464	4462
4	4459	5448	4355	4497
4	5334	4426	4459	4462
4	5651	5261	5652	2998
4	5652	4706	5256	5651
4	5651	2999	5257	5261
4	5651	2999	5261	2998
4	5651	5652	5261	5256
4	5651	5261	5257	5256
4	4373	5653	4371	5654
4	4373	4339	5002	5654
4	3823	3824	3829	4372
4	3824	4180	4371	5653
4	4725	4727	4897	4700
4	4725	4897	4727	4898
4	4897	4695	5655	4838
4	4897	5428	5655	4727
4	4897	5655	5656	4978
4	4897	4978	4829	4838
4	5557	4899	4978	4831
4	5639	5040	4995	5313
4	4700	4829	4897	4831
4	4766	5283	4991	4375
4	5280	4375	4766	4993
4	4766	5343	4993	4994
4	4766	5348	4994	4148
4	4766	4989	5283	3867
4	4994	4992	4766	4990
4	4990	4766	4994	4148
4	5657	5658	5559	5659
4	5657	4915	5658	4913
4	5657	5658	5660	5661
4	5657	5660	5659	5662
4	5657	5659	5585	5662
4	5663	4790	4937	5363
4	4462	4988	4463	5335
4	4940	4882	4881	5663
4	4940	4881	5664	5663
4	5665	5664	4940	4881
4	5663	4730	4938	5666
4	5663	4730	5666	5664
4	5137	5631	5138	4818
4	5137	5667	4581	5121
4	5137	4581	4931	4172
4	4815	4819	4183	4816
4	4815	5578	4183	4819
4	5119	4847	5631	4183
4	5119	5137	4581	5121
4	4169	4581	5119	4172
4	5442	5448	5446	5444
4	5448	4191	4363	4497
4	5448	4355	4491	4418
4	5448	4418	4491	5447
4	5448	5668	4418	4423
4	5444	5668	4497	5448
4	4459	5448	5668	4418
4	5448	5446	4423	4418
4	4525	4527	4052	4530
4	4522	5613	4632	5614
4	4535	4522	4515	5614
4	5614	4529	4535	4522
4	4513	4514	4512	4525
4	4044	4042	3931	3930
4	4044	3930	5339	4041
4	3932	3929	4674	5481
4	4673	4044	4039	4626
4	4674	5481	3929	5482
4	3929	5482	5481	5248
4	4044	4674	3929	4670
4	5436	4590	4585	4665
4	5436	5301	4665	4586
4	4002	4665	4667	4668
4	4665	5437	5301	4002
4	4928	5669	4930	5016
4	4928	5020	2632	5021
4	5313	4358	5314	5640
4	2645	2631	5021	5669
4	4928	5023	2631	2632
4	5218	5219	5670	5220
4	5218	4927	5670	5138
4	4925	4927	5218	4931
4	5035	5672	5671	4023
4	5035	3949	4793	5673
4	4798	5035	5238	5243
4	4272	5243	5035	4023
4	5674	4286	4199	4285
4	4990	4766	4756	4989
4	5675	5674	5310	4285
4	5639	5313	5640	5040
4	5675	5238	4272	4285
4	4148	4990	3894	4994
4	4285	4272	5312	5238
4	3833	2120	3832	3834
4	4069	2120	2894	3833
4	2022	2894	4069	2120
4	3833	3838	2893	4064
4	3833	5676	4064	2893
4	4311	4724	5677	4075
4	4310	4309	4097	4311
4	3848	4311	4753	5677
4	5678	5666	5663	5679
4	3841	4498	3852	3853
4	4311	4097	4310	3850
4	3811	3822	3814	3812
4	3822	5681	5680	5682
4	3822	3812	5683	4738
4	3822	3812	5684	5683
4	3817	3822	5684	5685
4	3822	5682	5683	1833
4	3822	5686	5681	4592
4	3822	5681	1833	5685
4	4081	4068	4689	4159
4	4081	4083	4160	4161
4	4067	4160	4083	4504
4	4067	4081	4068	4082
4	4081	4164	4068	4159
4	4160	4083	5687	4161
4	4160	4083	4504	5687
4	4160	5350	4080	4162
4	4133	4123	4974	5055
4	4744	5139	4246	4244
4	5060	5186	5185	5688
4	4241	4243	4244	4982
4	4242	4779	4250	5689
4	5139	4244	4743	4704
4	4244	4982	4243	4711
4	4241	5690	4780	4778
4	5215	4123	4136	5055
4	5282	4246	5139	4983
4	5504	5265	5072	5233
4	5072	5233	5265	5232
4	5232	5691	5233	5265
4	5232	5072	5076	5074
4	5267	5225	5232	5269
4	5692	5693	5269	5225
4	5232	5691	5269	5692
4	5055	5694	4974	5057
4	5172	5323	4519	4633
4	4517	5172	4519	4633
4	5172	4519	5323	5324
4	5172	5323	4437	4746
4	4517	4518	4632	4633
4	4431	4449	4517	4437
4	4449	4433	4086	4089
4	5172	4519	5324	4520
4	5283	5637	4427	5638
4	5283	4427	3872	5638
4	5283	4430	3872	4427
4	5332	5336	4991	5335
4	5332	4426	4429	4178
4	5695	4013	5696	4010
4	5695	5697	5262	4010
4	5695	4004	4255	5262
4	4009	4260	5695	4013
4	4009	4010	4011	4013
4	5054	5045	5135	2876
4	5698	2880	5054	2876
4	5042	5054	5045	5043
4	5050	5053	5054	2884
4	2880	2879	5698	5049
4	2881	2880	5045	5053
4	5627	5699	5057	5215
4	5054	2884	5053	2880
4	4992	4993	5700	4994
4	4992	5313	4994	5700
4	5408	5571	1751	5570
4	5701	5453	4421	5451
4	4992	4375	4991	4361
4	5283	4766	5281	4375
4	5283	3866	3867	4989
4	4757	4761	4758	3869
4	3908	4208	3904	4209
4	3847	5702	5389	3910
4	5176	3910	3847	5389
4	4212	3849	4207	4821
4	3854	3845	3847	4683
4	4615	1678	4613	1673
4	5464	4355	5703	4356
4	4615	5408	3998	1678
4	4615	3998	5408	5407
4	4615	4618	5407	1677
4	4413	4417	4415	4421
4	3985	4738	3895	3812
4	3985	4151	3895	4149
4	3895	5683	3896	3812
4	3895	5683	3812	4738
4	5704	3896	3895	5683
4	3895	4149	1699	1695
4	3895	5704	1719	1699
4	4952	5705	5356	5445
4	5159	5160	5203	5706
4	5159	5203	5160	5157
4	5707	5708	5447	5709
4	5159	5157	5710	5711
4	5159	4659	4658	5710
4	3816	3984	5712	3992
4	3813	3984	3993	4599
4	3991	3992	3816	5439
4	3816	5712	4843	5107
4	3987	5107	3816	4843
4	3991	3989	3988	3815
4	3991	5713	3818	3988
4	4271	4286	5714	4273
4	5714	4273	4286	5506
4	4285	5506	4286	4273
4	4285	4338	4997	4199
4	4285	5506	4272	5675
4	4269	4285	4273	4272
4	4269	4285	4017	4281
4	5243	4798	4793	5247
4	5243	5034	3806	4793
4	3806	5247	4793	4643
4	3810	3806	4793	3948
4	3806	4637	4793	3948
4	4022	3947	5033	3810
4	3891	4716	4073	4076
4	3852	4074	3893	3851
4	4311	4073	4312	4075
4	4212	4307	5715	4821
4	4212	4211	4949	4209
4	3849	4211	4754	4212
4	4212	4754	3849	4821
4	4070	2357	3840	2320
4	4657	3913	5320	4659
4	5682	3994	5680	1701
4	4070	3837	5716	2320
4	4070	5717	4066	4069
4	4070	5248	4066	5717
4	4070	2275	5717	2164
4	3824	4370	4180	4767
4	3824	4767	5718	4367
4	4190	5556	4371	4189
4	4189	5556	4371	5554
4	5719	4180	4371	4189
4	4371	4370	4180	3824
4	5012	5013	5720	4966
4	4370	4371	4189	4190
4	5556	4188	4189	4190
4	3916	5161	3917	3913
4	5161	5316	3913	4659
4	5161	3922	3917	5158
4	5161	5158	4456	5314
4	3901	4049	3912	5721
4	3904	3901	4896	3912
4	3901	4049	4980	4896
4	3901	4980	1993	4896
4	3898	3901	3906	378
4	5417	1635	5722	383
4	381	1637	2012	382
4	2012	382	1637	5417
4	5417	5177	5722	1635
4	5417	5416	5722	5177
4	5417	2014	5416	2109
4	5417	383	2014	382
4	5050	5481	5047	5053
4	3932	5481	5478	3934
4	5481	5717	5723	4066
4	5481	5248	5723	5717
4	5481	5676	5478	3934
4	4129	4907	4784	4217
4	4217	4907	4784	4216
4	4784	3975	4216	3976
4	4784	5180	4146	5724
4	4784	3975	3976	5725
4	5192	5080	5306	4292
4	5080	5726	335	5307
4	5080	5726	5727	335
4	5083	5088	5081	4341
4	5080	5727	5081	5079
4	5192	5080	5307	5306
4	3951	3952	3967	4967
4	4541	4543	5728	5729
4	4541	5072	5233	5504
4	5071	4541	5076	5730
4	4070	2320	2278	2357
4	4541	3940	5234	4486
4	3939	5563	4541	5728
4	4541	5563	3940	4486
4	4277	4397	4394	4892
4	4277	4892	4394	4063
4	4394	4892	4383	4063
4	4394	4400	4397	4279
4	4395	5368	5093	4398
4	4382	4394	4057	4399
4	4394	5731	4398	4400
4	5732	5731	4398	4394
4	4394	4280	4277	5732
4	4558	4562	4561	5733
4	4563	4555	4559	4560
4	4561	4557	5734	4560
4	4561	4560	5735	5736
4	4561	5735	5737	5736
4	5360	5365	5363	4790
4	5360	4937	5738	5552
4	4941	4935	4934	4936
4	4935	4941	4934	4938
4	4937	5364	5738	4939
4	4935	4942	5739	4939
4	4965	5720	3957	3960
4	4658	4968	4967	5648
4	4655	4656	3916	3915
4	5740	4656	4968	4966
4	4658	4967	5741	5648
4	4657	4659	5463	5648
4	4658	5649	5648	5741
4	4658	4659	5649	5710
4	4170	5742	4923	4921
4	4170	5480	2619	4173
4	4581	4923	4170	4167
4	4923	5743	4167	4581
4	5744	4794	2954	2953
4	5745	2421	2116	2158
4	5744	2954	4795	2944
4	1710	1612	373	372
4	5744	2943	4765	4763
4	5744	2944	4795	4736
4	5319	5648	5650	5647
4	5360	5365	4790	5362
4	5365	4854	5363	4880
4	4912	4854	5365	5536
4	3823	3826	5001	3828
4	5553	4397	4892	4340
4	5553	4371	4342	5556
4	4339	4341	4342	5001
4	4351	4339	4401	4341
4	4339	5746	5004	5002
4	4339	4401	5004	5746
4	4652	5609	4648	4611
4	4604	4648	4652	4506
4	4531	4648	4610	4611
4	4652	5747	4495	5337
4	4652	4495	5747	4584
4	4977	4838	5655	5748
4	4977	5242	5749	5748
4	4838	5751	5750	4977
4	5502	4108	5752	5175
4	4108	5702	5389	4107
4	4106	1710	4105	1613
4	1940	4107	5753	4106
4	2754	2076	525	524
4	5502	4108	4105	5752
4	4108	5389	4105	4107
4	4446	5118	5114	5754
4	5114	5118	4001	5116
4	4446	4001	5118	5140
4	5104	5509	5230	5755
4	5104	5755	5240	5693
4	5133	5267	5135	5074
4	5105	5757	5756	5104
4	5465	5462	5758	5759
4	5760	2731	5761	2727
4	5104	5136	5135	5106
4	4745	4249	4248	4252
4	4252	4243	4012	4256
4	4244	4243	4252	4256
4	4252	4249	4248	4245
4	4246	4744	4252	4253
4	4253	4744	4252	4748
4	4245	4248	4252	4243
4	4245	4252	4244	4243
4	5762	5691	5763	2256
4	5762	2046	5691	2127
4	4485	4273	4018	4019
4	4857	4270	5764	4485
4	5764	4485	4270	4273
4	4285	5506	4273	4272
4	4273	5765	5764	4485
4	4273	5764	5765	5714
4	4357	5314	4358	4359
4	5651	5256	5257	3009
4	5257	3009	5256	5258
4	5257	4389	5261	2999
4	5257	3010	5258	4389
4	5257	3000	4389	2999
4	5257	3010	4389	3000
4	5688	5060	4972	5185
4	5065	4512	5235	4040
4	4497	4187	4355	4426
4	4972	5628	5688	5766
4	4134	5688	4972	5628
4	4135	4137	4138	5179
4	4133	4134	5060	4972
4	4621	4622	4202	5581
4	4202	5581	4622	5421
4	4202	4722	5581	5421
4	4202	4624	5581	5561
4	4203	4200	4445	4201
4	5767	4623	4202	4624
4	5206	5587	5470	5562
4	5208	5589	5470	5587
4	4444	4284	5206	4283
4	5207	4282	5210	5567
4	5206	5599	4283	5209
4	5206	4444	4443	4284
4	5208	4368	5587	5209
4	5207	4283	5567	5209
4	5529	4345	4343	5768
4	5528	5605	4399	5769
4	5528	5770	5529	5530
4	4709	5772	5771	4552
4	5366	5773	5398	4276
4	5543	4702	4709	4549
4	4709	5537	5611	5543
4	5611	4709	4702	4707
4	4707	4709	4702	4706
4	5157	5205	5201	4594
4	5611	5774	5537	4709
4	2878	2040	2020	5757
4	493	2020	2878	2040
4	5757	5507	5508	5105
4	5757	5507	2160	2020
4	5757	5508	5106	5105
4	5748	4838	4695	5750
4	5757	5105	2165	2160
4	2845	4699	4641	4698
4	4638	4727	4725	4641
4	4698	4834	4833	2837
4	4638	2844	4698	4726
4	2845	4641	4636	2844
4	4698	2837	4833	2840
4	4574	4224	4223	4227
4	5598	5584	5775	5776
4	5514	5775	4344	4223
4	5514	4223	4344	4227
4	5514	5585	5595	5776
4	3863	4905	4903	4904
4	4904	3863	3864	4903
4	4873	4791	4771	4874
4	4876	4903	5249	4873
4	4903	4873	4877	4905
4	4872	4764	4875	5516
4	4872	4876	4873	4877
4	4872	4873	4874	4877
4	4869	5777	4223	5778
4	4869	5779	5601	5780
4	4869	5778	5780	5781
4	4282	4059	4283	4060
4	4282	5567	4059	4380
4	4283	5209	4343	5567
4	5206	4283	5599	5782
4	5206	4283	5782	4444
4	4283	5783	4442	4060
4	4284	4060	4283	4442
4	4101	3966	4384	4386
4	3966	3965	5784	3963
4	4696	4695	4700	5785
4	3966	4445	4387	5784
4	4176	4189	4370	4180
4	5538	4534	5786	5544
4	5538	4583	5787	5786
4	4654	4392	5395	5609
4	4807	1660	1659	1664
4	4391	4588	4894	5395
4	5030	2206	2113	2208
4	4866	4588	4894	4391
4	4586	4588	5395	4589
4	5395	5609	4392	4391
4	5772	4391	5395	5436
4	4391	5788	5436	5772
4	5395	4894	4391	5059
4	4099	5304	4001	5254
4	4001	5114	5116	5115
4	4099	4001	4447	5254
4	4099	5114	4100	4447
4	4099	5789	5114	5124
4	4694	4642	2054	4699
4	4099	4100	5114	5789
4	3974	3975	3980	4786
4	3975	3973	5790	3974
4	5791	2654	433	2653
4	3974	5792	5173	3980
4	5473	2114	5418	2109
4	5793	430	1688	1689
4	4168	5632	5794	4578
4	3974	5792	5501	5790
4	5598	5768	2931	2941
4	3974	3977	5790	5501
4	3969	3980	3974	3975
4	3969	3975	3973	3976
4	5624	4884	4853	4855
4	5617	5625	5623	5619
4	5285	1760	1708	1709
4	5795	1611	1617	1618
4	5624	5626	5625	5414
4	5624	4886	5415	4734
4	4847	5132	5631	5796
4	5602	2795	2799	2796
4	5624	4734	5625	5619
4	5624	4884	4909	4853
4	5797	2136	2185	2060
4	4127	4124	4126	4140
4	4129	5151	4139	4128
4	4130	5011	4906	4217
4	4129	4130	4907	4217
4	4130	4877	4906	4875
4	5798	337	1579	1578
4	4130	4906	5011	5010
4	4130	5179	4907	5516
4	4127	4130	4125	5179
4	4127	4129	4907	4784
4	4138	5515	4134	5688
4	4140	2627	5629	5628
4	4138	4146	5630	5629
4	4140	4126	5633	4132
4	4152	4154	4608	4323
4	4847	4183	5799	5631
4	5119	4172	5132	4169
4	5119	4849	4847	4183
4	5119	4168	4169	4458
4	4458	5113	4169	4847
4	4152	4848	4849	4608
4	4138	5628	4134	4140
4	4739	2816	2813	2812
4	4146	5800	5724	5630
4	4124	4135	4123	4136
4	4146	5181	5724	5180
4	4138	5181	5179	4137
4	5200	5191	5384	5197
4	5089	5088	5005	5197
4	4725	4726	4698	4900
4	5497	2057	2125	2135
4	5082	5079	5307	5080
4	4643	4727	4641	4695
4	5801	1988	1979	1978
4	5197	5088	5802	5082
4	5307	5082	5192	5200
4	4745	4747	5129	4748
4	4742	4252	4015	4256
4	4860	4745	4437	4249
4	4252	4248	4745	4015
4	4745	4437	5323	4746
4	4742	5432	4015	4746
4	5803	341	5707	4490
4	5803	340	5804	5773
4	5793	1693	1688	1692
4	5804	4490	5803	5366
4	5803	4490	340	341
4	5803	5367	5707	1574
4	5803	1575	5773	5367
4	5003	2351	5496	5805
4	5639	4599	3984	3986
4	3984	4843	5712	4987
4	3984	4452	5359	5806
4	5639	3986	3984	4995
4	5347	5808	5807	1908
4	3984	4992	5358	5359
4	5639	4995	3984	5313
4	5358	3984	4987	4843
4	5366	5554	5271	5398
4	5273	5275	4276	5274
4	5272	4239	5273	5271
4	5165	1984	1993	379
4	5573	1673	1678	1679
4	5487	5484	5031	1632
4	5272	5809	4892	5271
4	4018	4482	5810	5811
4	1667	414	415	2043
4	5273	5277	5278	5275
4	2018	30	482	380
4	5553	5555	5271	5809
4	5795	1619	1612	1618
4	5383	1878	1834	1830
4	5555	5277	5554	5271
4	5539	5537	4533	4547
4	4709	5774	5537	5771
4	5537	5771	4602	4600
4	5129	5812	5125	4748
4	5125	5129	4253	4958
4	4018	5810	4272	5506
4	4018	4482	4026	5810
4	4016	4026	4024	4022
4	5416	5178	5813	5722
4	4018	4023	4272	5810
4	2722	2098	546	2099
4	2034	480	479	1982
4	5814	4107	1707	4105
4	5514	5775	4223	5777
4	3899	1623	5286	1622
4	4344	4345	4227	4223
4	5598	5775	4344	5776
4	4344	5768	4343	4345
4	4344	5598	5599	5768
4	4264	5567	4344	4368
4	4264	4343	4344	5567
4	4747	1966	1972	1967
4	4315	1664	1775	1665
4	4344	4343	5209	5567
4	4207	3849	4212	4211
4	3909	3854	3911	3908
4	4211	3849	4754	3843
4	1711	1616	29	376
4	4482	4273	4018	4485
4	5178	4949	4211	4948
4	1626	1632	5484	5483
4	377	3898	3906	378
4	4683	3854	3910	3847
4	5410	5371	4114	5372
4	5372	5097	5797	4740
4	4114	4115	4117	5410
4	4724	5815	5677	2544
4	4117	4114	5410	5371
4	4114	4116	5409	5411
4	5327	1968	1946	1953
4	4544	2860	2861	2857
4	5372	4114	5409	5411
4	4120	4117	5342	4114
4	4788	5542	5816	4789
4	5663	4934	4789	5679
4	1786	35	1759	409
4	5289	5297	4787	5291
4	5360	4937	5552	4934
4	5290	4790	4787	5362
4	5290	4790	4789	4787
4	4857	4982	4007	4984
4	4880	4790	5363	5365
4	5385	1739	1834	1799
4	4790	5363	5663	4882
4	4651	36	1686	428
4	5365	4790	5362	5816
4	5360	5738	5364	5548
4	5663	5363	4937	4940
4	4104	5817	4103	4316
4	1661	408	5818	1657
4	5818	1657	408	4104
4	5819	4095	408	4104
4	4104	5817	5818	1657
4	4104	5819	4096	5170
4	5238	5243	5035	4272
4	5242	5820	5244	5309
4	5187	5188	5192	5193
4	3867	3868	5821	3866
4	5764	4007	4983	4711
4	5820	5034	5242	5244
4	5243	3806	5247	4793
4	5624	4884	4855	4886
4	5243	4023	5244	5034
4	3979	2762	2758	2761
4	5422	5822	5260	5823
4	5422	5823	5424	5423
4	4577	2316	2233	2339
4	4701	5424	5259	4702
4	2070	3944	519	2071
4	4701	5424	5422	5259
4	5422	5420	5259	4622
4	4701	5422	5421	5420
4	5562	5660	5767	5824
4	4701	5421	5422	5426
4	4701	5422	5423	5426
4	5825	1650	402	32
4	1704	1610	370	391
4	3823	3826	3828	5378
4	3826	3825	5006	5378
4	2015	1631	388	31
4	4373	4342	4371	4372
4	4893	2509	2554	2556
4	5394	5656	1846	1890
4	5760	572	2731	2727
4	4342	5556	4347	4340
4	3823	3827	4342	4372
4	3826	4339	4342	5001
4	4340	4342	4341	4348
4	5826	5827	4031	4034
4	4027	4028	4034	4031
4	2254	5094	2305	2295
4	4890	5828	4406	4034
4	5341	1913	1823	1870
4	5373	1893	1844	1838
4	4411	5826	4031	4034
4	5588	4268	4368	5591
4	5829	5830	5331	1872
4	4034	5751	4411	5826
4	4033	4035	4406	4836
4	5831	2751	2752	2748
4	4917	5832	4932	4915
4	5120	182	889	888
4	4035	4034	5751	4411
4	5160	2673	5833	3920
4	5324	4959	5148	4519
4	5172	5323	4633	4437
4	5236	4508	4042	4507
4	4525	4513	4518	4527
4	1779	4360	4377	1876
4	5325	5148	5324	4959
4	5769	242	1607	1608
4	4519	5148	4518	4959
4	4959	4633	4519	5323
4	4352	1593	1592	1578
4	5393	1889	1912	1925
4	5398	5834	5773	5556
4	5307	1834	1725	1768
4	5148	5324	4519	4303
4	4516	4052	5152	4303
4	5304	5254	5835	5836
4	5304	5255	5260	5424
4	4000	4002	5303	3999
4	5304	5424	5260	5300
4	4000	5304	5302	4002
4	5290	4789	5545	5291
4	4561	5734	5837	5737
4	4934	5838	4941	5645
4	5360	5738	4937	5364
4	4852	2412	2334	2336
4	5839	4100	5455	5789
4	5839	5455	5452	5454
4	5839	5454	5452	5840
4	4488	1839	1887	1842
4	5510	2166	2048	2046
4	4914	5841	5832	5842
4	5839	5124	5118	5114
4	5839	5114	5118	5754
4	2540	2541	4367	5843
4	4363	4497	4355	5448
4	5447	5758	5464	4491
4	4354	4363	4365	4187
4	5386	5448	5446	5442
4	4632	4436	5615	5613
4	4632	5643	4249	5844
4	4625	4633	4916	5129
4	4038	4518	4632	4515
4	4516	5148	4303	5152
4	4632	5844	4249	4630
4	5374	1788	1847	1804
4	4385	5306	5317	5307
4	4437	4517	4632	4633
4	4109	1957	1930	1956
4	5845	2168	2050	2167
4	4632	4437	4633	4249
4	4625	4249	4633	5129
4	4066	3835	5481	3929
4	5646	5552	5295	2574
4	4044	5236	3931	4042
4	4044	4042	3930	4041
4	4036	4042	4044	4041
4	5846	4349	1577	5847
4	5848	2906	5849	2907
4	5544	5292	5641	5850
4	5236	4670	5248	5716
4	5851	1969	1963	1937
4	5838	5852	5545	5679
4	5161	4659	5853	5315
4	5003	2423	2350	2351
4	4665	5436	4590	4002
4	4590	5436	5854	5835
4	5855	392	393	1654
4	2047	1668	1669	416
4	3985	4151	3987	3983
4	4590	4002	5436	5835
4	5856	912	927	926
4	5854	5436	4590	4660
4	4970	2616	2615	2630
4	4591	5857	4590	4660
4	2758	2075	524	523
4	2073	521	3859	2072
4	4590	5857	4591	5858
4	5501	2076	2591	2118
4	3857	3879	3864	3882
4	5436	5788	4660	5854
4	5577	2993	4185	4819
4	5577	181	5121	3003
4	5577	180	5121	181
4	5577	5121	4185	3003
4	4820	180	5577	2993
4	5289	5293	5646	5296
4	4133	4731	5060	5055
4	5218	4927	4926	5859
4	4925	4931	5218	5061
4	5800	2080	530	2081
4	5860	5861	69	2605
4	4925	4930	4973	4926
4	4237	5863	5862	3878
4	5217	2207	2316	2155
4	4322	2223	2220	2191
4	4153	2220	2223	2336
4	5061	4931	5214	4929
4	4925	4969	5061	4973
4	5864	5816	5865	2976
4	4929	4969	5213	5061
4	5284	5866	5279	3875
4	4314	1858	1906	1774
4	4839	5475	1860	4526
4	5284	4032	4030	5866
4	5279	5867	5851	5866
4	1699	1700	437	1719
4	5279	5281	5347	5867
4	5609	4551	4547	5771
4	5280	4375	4376	5347
4	5868	232	5869	233
4	4888	5279	5284	5867
4	5870	4432	4438	4090
4	5680	435	1697	1701
4	5871	2325	2404	2324
4	4498	4087	4432	3850
4	4432	4498	4434	4433
4	4432	4434	3850	4821
4	4431	4434	4962	4433
4	5872	5873	4722	4723
4	4432	5874	3850	4092
4	5875	2676	2671	2675
4	2690	553	2091	554
4	4432	5870	4753	5874
4	4431	4436	4517	4438
4	4432	4092	3850	4087
4	5144	2083	2144	2082
4	2773	3858	5299	2769
4	5876	1580	1594	1579
4	5290	5295	5646	5552
4	4349	337	1578	338
4	5094	2254	2305	2249
4	4054	5877	4049	5878
4	4050	4476	4054	4980
4	4047	4051	4050	4053
4	4054	4304	5877	4055
4	4047	4055	4051	5152
4	4075	3852	4311	4073
4	4310	4087	4498	3850
4	5663	4882	4881	4790
4	4311	4309	4097	5815
4	5879	2973	2984	2974
4	5880	78	2597	77
4	4073	4310	4312	4316
4	5681	5680	5682	3994
4	4900	2836	2839	2840
4	5681	5682	1718	3994
4	5838	4938	5219	5666
4	4116	2147	2063	2062
4	5681	441	2655	440
4	5681	2651	3994	440
4	4696	2054	2128	2129
4	1795	4797	4898	1740
4	4726	2843	2839	1740
4	4083	4079	5881	4663
4	5130	1882	1922	1893
4	5374	1847	1788	1844
4	4081	4157	4163	4662
4	4163	4505	4663	1995
4	5882	2169	2168	2265
4	4067	4079	3838	4065
4	4067	4078	4082	3838
4	4243	4012	4255	5262
4	4501	1976	1977	2039
4	4070	3831	3834	4069
4	5863	11	591	2759
4	4820	179	2993	2983
4	4243	4711	4982	4255
4	4252	4012	4248	4015
4	4253	4251	4249	4250
4	4247	4248	4243	4524
4	4862	4248	4243	4012
4	5215	5517	4764	4732
4	4241	4780	4242	4778
4	4711	4256	4243	4244
4	4776	4774	4781	4779
4	4541	5730	5883	5076
4	4939	2589	2535	2534
4	5071	5078	1744	5729
4	5133	2869	5504	2868
4	5071	5072	5074	5076
4	4182	3013	3003	181
4	4894	2707	2712	2708
4	3985	1695	1691	1690
4	2868	5133	5073	5504
4	5437	2187	2235	2175
4	4449	4520	4302	4517
4	4517	4522	4438	4436
4	5148	4037	5325	5341
4	4449	4746	4089	5461
4	4392	4603	3016	4602
4	4520	4961	4963	4960
4	4960	4962	4520	4961
4	5172	4520	5884	5885
4	3999	2235	2322	2239
4	5184	5474	4841	391
4	5721	2002	377	3906
4	4520	4963	4303	5324
4	4991	4992	4766	4375
4	1707	372	371	1611
4	5283	5281	3872	4430
4	4888	3872	4430	4427
4	5284	3875	5279	3872
4	5284	3875	3872	4889
4	5336	3872	5283	3866
4	4357	4992	4451	4461
4	28	4841	5474	391
4	4888	5279	5867	5281
4	3872	4427	4889	5638
4	5886	1641	5887	1702
4	3872	5638	4889	3871
4	4044	4673	5339	3936
4	4044	5339	3930	3936
4	5184	1610	391	390
4	5795	1617	1611	1610
4	4044	3929	3930	3931
4	1705	370	1610	371
4	1705	1610	1611	371
4	4841	1703	1765	1649
4	4044	4041	5339	4039
4	5339	3930	5351	4041
4	4043	5339	4039	5326
4	5339	5340	4041	5351
4	5852	5889	5888	5796
4	4712	1811	4713	1805
4	1805	5407	4712	1757
4	4712	1757	427	1759
4	4712	427	1757	1681
4	4705	4714	4712	5407
4	4705	1811	4704	4713
4	4705	3997	4619	4713
4	4712	1681	4714	1759
4	4261	4257	4714	1759
4	1704	28	391	370
4	5814	1705	1610	1611
4	1707	1612	372	1611
4	4714	1759	4257	4712
4	1759	1811	4257	4712
4	5055	5057	5183	5215
4	4047	4052	4302	4303
4	4048	4308	4307	4981
4	4048	4962	4306	4650
4	4307	5890	4981	4308
4	4048	4207	4650	4306
4	5486	1624	1618	1617
4	4207	4649	3911	4210
4	4212	5715	4206	5891
4	4307	5892	5870	5893
4	373	4106	1706	374
4	4821	5892	5870	4307
4	5814	1704	1762	1763
4	4729	4731	5216	4730
4	3904	3912	3905	3906
4	5894	3907	4213	5287
4	4213	1760	5894	5285
4	4108	5389	5702	3910
4	4108	5753	5287	3910
4	5287	5388	5285	4106
4	5752	1620	1614	1613
4	4105	1619	1620	1613
4	2033	480	1983	481
4	5287	5285	5753	4106
4	5282	1920	1954	1951
4	4105	1612	5795	1619
4	3905	5288	4213	5285
4	3903	4108	5175	5388
4	3903	5175	5286	5388
4	5852	5895	5889	5796
4	3902	1630	5419	379
4	3996	5573	4196	4197
4	5573	1674	4197	1673
4	5573	1673	4613	1678
4	5390	1621	1620	1627
4	374	1613	373	4106
4	5573	5571	4196	5896
4	1708	374	1614	375
4	5573	1674	5896	4197
4	5804	5834	5897	5556
4	4190	5804	4188	4186
4	4072	5874	2362	2438
4	4370	5898	3829	4425
4	4370	4372	4371	4190
4	1709	375	1615	376
4	4176	4186	4190	4188
4	4105	5814	5795	1612
4	5554	4188	4189	5556
4	5160	3920	3921	2669
4	5160	2669	3921	2668
4	5899	5901	5900	4658
4	5286	1615	1622	1616
4	4925	4929	4970	4930
4	5160	5157	5203	3921
4	5160	5875	4661	2676
4	2677	2673	5833	5160
4	5160	2668	3921	5203
4	5159	5160	5706	5875
4	3817	3813	4599	3812
4	3817	3813	3815	4599
4	3814	3818	3981	5902
4	1711	376	1709	1616
4	3812	5037	3986	5204
4	3812	3986	4599	5204
4	4285	5312	4338	5310
4	5903	4986	4017	4281
4	4815	4142	4145	5578
4	4281	4986	4270	4996
4	4997	4996	5903	4281
4	3899	1622	1629	1623
4	5904	5903	4997	4996
4	4194	4996	4270	4008
4	5184	391	1648	390
4	4194	4008	4270	4271
4	4285	5905	4286	5506
4	4792	4727	4641	4643
4	5035	3947	5672	4023
4	4679	1617	390	389
4	5753	5287	4106	4108
4	3805	5034	3806	3807
4	5795	1611	1618	1612
4	5184	390	1617	1610
4	3806	5247	4643	5906
4	3806	3948	3809	4637
4	3806	3807	5034	5907
4	4793	4798	4643	5247
4	5388	1614	1621	1615
4	5825	402	2115	401
4	4105	1612	1619	1613
4	5486	1624	1625	1618
4	3810	5035	4793	5034
4	5237	4798	5673	5035
4	5035	5237	5908	5909
4	5631	5138	4818	5895
4	4927	5015	5016	5910
4	3844	3852	4311	4075
4	4715	4073	4075	4312
4	1625	5484	1626	1632
4	4715	4073	4716	4076
4	4214	4649	3911	5911
4	4103	4718	4312	5817
4	5286	1622	1623	1616
4	5753	1761	1861	1905
4	5251	4718	4716	4715
4	3899	1628	1629	1622
4	3891	5166	4073	4716
4	3891	4076	4073	4075
4	377	1616	3905	1623
4	4475	1983	1992	1993
4	4497	5913	5912	5914
4	4715	4724	4312	4075
4	5915	4719	3892	4075
4	5285	1616	1709	1615
4	3888	5030	4677	5029
4	3892	4075	4719	4076
4	4210	3911	4214	4649
4	4686	4687	4682	5916
4	3899	1630	1623	1629
4	4214	4649	5916	4210
4	5167	1642	1647	1643
4	5818	1657	1656	1661
4	4496	5709	4491	5758
4	4684	4682	4649	4683
4	4048	4307	4206	4306
4	4682	4686	4650	4434
4	4649	5917	4683	3911
4	5917	4684	4649	4683
4	5486	1625	1619	1618
4	4683	4682	4649	3854
4	4385	334	5918	5431
4	5027	4677	2113	2015
4	5502	1620	1626	1627
4	5502	1626	1620	1619
4	5722	4948	5177	5416
4	5753	4106	4107	4108
4	5879	5678	2983	4817
4	5879	5542	5678	5664
4	5542	5678	2994	2984
4	5879	2973	5919	2983
4	5879	2973	4412	5919
4	5553	5809	4339	5654
4	5553	5398	4340	5271
4	5487	2110	5813	2013
4	4347	4342	4341	5001
4	5553	5556	4342	4340
4	5486	1619	4105	5795
4	4190	5804	5556	4188
4	5556	5834	5773	5804
4	5387	1634	1635	1628
4	5556	5834	5897	5328
4	4190	4372	5556	5328
4	5556	4347	5328	4372
4	5419	379	1637	380
4	3898	1623	1630	378
4	4980	2001	1992	1991
4	4342	5556	4372	4347
4	5285	1708	5388	1615
4	2032	1984	481	1983
4	5419	1630	1637	379
4	3890	388	389	1646
4	5556	4340	5834	4347
4	4371	5556	4190	4372
4	4413	4419	4417	4421
4	5553	4340	4339	4397
4	1654	4806	1639	5855
4	5470	4201	5562	4624
4	5470	5559	5560	5562
4	5028	388	1631	1624
4	2016	385	1633	386
4	5483	1633	1627	1626
4	5920	5921	2372	2291
4	4687	1904	4684	1939
4	5922	5066	1990	4472
4	5922	4472	1991	4476
4	4476	5923	2000	5922
4	4980	2000	4476	5923
4	5922	4472	5322	5066
4	5922	4476	5322	4472
4	5074	5075	2872	5133
4	5075	5135	5074	2872
4	5924	384	1634	385
4	5135	5698	5077	5043
4	5133	5135	2873	2872
4	5387	1627	1634	1628
4	2030	384	383	1635
4	5481	4066	5723	5676
4	4354	4361	4360	4357
4	5417	2109	2012	2014
4	5478	4064	3934	5676
4	5481	5053	5723	5047
4	5052	5375	5043	5051
4	5050	5047	4675	5042
4	5177	1629	1635	1636
4	5478	5353	3934	4064
4	5478	5353	2888	5479
4	4734	5619	5249	5625
4	5625	4734	4876	5249
4	5494	1630	1636	1637
4	5417	382	1636	383
4	5925	5926	5249	3863
4	3863	5925	4562	5249
4	2819	25	5918	445
4	5249	4905	4903	3863
4	2031	1637	381	380
4	5417	1636	382	1637
4	1703	4841	5474	28
4	5674	1857	1934	1898
4	5249	5926	5619	4791
4	5249	5733	5221	5625
4	5487	5031	5920	2110
4	5618	5926	5619	5623
4	2015	1631	31	387
4	5619	5623	5926	5249
4	5249	4562	5733	5623
4	3905	3898	3906	377
4	2029	1632	386	2016
4	4131	5927	5151	4139
4	4127	4907	4129	4130
4	4124	4123	4126	4132
4	4139	4141	5633	5149
4	4126	5633	4132	5928
4	4395	4399	5368	4398
4	4351	4350	5368	5606
4	5813	2013	5924	5487
4	4351	5846	4383	4340
4	4351	4340	4353	5846
4	4351	5606	4383	5846
4	4394	4057	4399	4398
4	4382	4383	4399	5606
4	4383	4275	4892	4340
4	4104	4095	4096	5819
4	4011	4014	4085	4094
4	2030	1634	384	1635
4	4085	4098	4091	4092
4	4309	4098	4096	4097
4	4096	4088	5819	4095
4	4924	4930	4928	4921
4	4459	5334	4460	4497
4	5218	4145	4931	5138
4	5061	4973	4969	4133
4	4461	4992	4991	4361
4	5177	1635	1629	1628
4	4808	5929	1658	1659
4	5138	4927	5132	4931
4	4924	4927	4925	4931
4	4925	5218	4927	4926
4	4450	4460	4459	4462
4	4705	4257	4254	4704
4	5319	5320	4453	5316
4	2031	380	381	30
4	4453	4356	5316	5314
4	5165	380	2018	1984
4	5320	4454	4453	4456
4	4966	4439	3967	4968
4	5541	5542	4789	5678
4	5786	5787	5538	5930
4	5540	5542	5541	5931
4	5541	5545	5852	5679
4	5541	5799	5545	5544
4	5540	5544	5545	5291
4	2027	388	399	31
4	5825	1638	392	32
4	5290	4789	4790	4934
4	5855	1638	1639	392
4	5610	4721	4703	5425
4	5932	394	1640	1641
4	5933	1642	401	400
4	5610	5294	5362	5546
4	5825	1638	32	401
4	5540	5611	4787	5931
4	4787	5610	5611	5543
4	4788	5611	4787	5610
4	5540	4787	5542	5931
4	4788	4790	5362	4787
4	5540	5291	4787	5543
4	4979	4408	5392	5391
4	4408	4112	4029	4030
4	5934	1654	393	1658
4	3933	5353	3935	5352
4	4408	4029	4112	5935
4	4808	1663	1659	1658
4	4408	4410	4409	5392
4	5167	1643	1638	1642
4	4408	4410	4109	4112
4	4387	5936	2980	2981
4	4387	5936	5784	4445
4	5934	393	1640	394
4	4387	4445	4384	4200
4	4387	2980	4200	2990
4	5937	5938	1898	1852
4	5251	2158	5939	2025
4	5886	396	33	395
4	4386	4387	4388	5940
4	4314	1774	4315	4807
4	4387	4388	2990	4200
4	4005	5380	5263	2286
4	4005	5941	2201	4617
4	4718	2126	2025	2026
4	4005	2286	5263	2287
4	4313	1817	1831	1775
4	4005	4616	5697	4004
4	4005	5697	5262	4004
4	2287	2204	2367	4005
4	5417	5177	1635	1636
4	398	28	1649	1703
4	4005	5697	2204	5262
4	4803	4808	5929	4804
4	4761	4198	4204	5942
4	4756	4156	420	421
4	1685	37	423	1758
4	4757	3867	3869	3868
4	4761	5942	4204	4759
4	5937	5346	4204	4759
4	4204	4759	5346	4761
4	5361	5294	5551	5546
4	5663	4934	5679	4938
4	5739	5620	4909	5364
4	2028	1646	1642	400
4	5364	5363	4884	5739
4	4840	1765	1815	1858
4	5825	1650	5939	2024
4	4912	5536	5534	5535
4	5534	5560	5535	5561
4	5364	5363	4854	4884
4	3833	3832	2894	2893
4	4912	4909	5364	4854
4	5452	3951	5456	5101
4	4955	5457	5453	4946
4	5452	3951	5457	5456
4	4946	5451	5453	4955
4	4955	4957	4946	5451
4	5251	5745	5939	2158
4	4679	389	1624	1617
4	3954	5452	5840	5101
4	5839	5452	5456	5101
4	4499	5486	5404	4678
4	4806	1643	1644	1639
4	5886	1641	396	395
4	5839	5944	5943	5454
4	4681	4499	5488	4680
4	3847	5389	5702	5404
4	1894	1774	1663	412
4	5945	1644	1649	1645
4	5945	1702	1645	1765
4	4499	5176	5389	5485
4	5478	4064	2888	5353
4	5689	4523	5241	4247
4	4860	4248	5643	4864
4	4524	4243	4862	4248
4	1702	1641	1645	397
4	4860	4248	4864	4862
4	4247	5689	4242	4250
4	4252	4243	4248	4012
4	5481	5676	5723	5946
4	2027	388	1646	399
4	5825	5939	2115	2024
4	2028	399	1646	400
4	4743	4744	4244	5139
4	3826	5005	5004	5001
4	4064	2888	5353	2892
4	4367	5947	3825	4767
4	4370	4768	3829	5898
4	5401	1863	1975	1916
4	3890	1647	1646	389
4	2024	402	1651	403
4	3824	4372	4373	4371
4	5167	1642	1646	1647
4	3824	3825	4767	4367
4	5718	3824	5653	4180
4	4314	1774	1894	1858
4	1649	4841	391	1648
4	4806	1639	1644	1640
4	4767	5843	4180	5718
4	4767	5947	4428	5843
4	4766	5348	4148	4762
4	1765	1645	398	397
4	5945	1644	1648	1649
4	4994	4148	5348	5948
4	1765	1645	1649	398
4	5280	4993	4766	5343
4	5700	4994	4993	5949
4	5949	5950	4994	5948
4	4064	5676	2889	2893
4	4151	4987	4990	4756
4	4934	5838	4938	4941
4	5645	5952	5951	5838
4	5475	1973	1975	1860
4	2024	402	1650	1651
4	5838	5679	4938	5666
4	5852	4143	5679	5838
4	5401	1975	1863	1860
4	5933	401	1642	1638
4	5855	1651	1650	1655
4	5932	394	395	1662
4	5929	1654	5934	1658
4	4842	1648	1643	1647
4	4665	4587	5437	4666
4	5301	5302	5835	4002
4	5421	5954	5953	5955
4	4075	5915	4719	4724
4	5029	2116	2208	2113
4	4934	5679	5838	5545
4	4934	4938	5838	5679
4	4002	5956	5437	5303
4	5934	1639	1640	393
4	5407	1676	1681	1682
4	2025	1652	404	403
4	3887	3886	5184	4841
4	4976	2614	4132	4971
4	4969	4132	4976	4974
4	4969	4133	4132	4974
4	2025	403	1651	1652
4	5694	5957	4126	4974
4	5929	5934	5932	1658
4	4126	4974	4132	4123
4	4126	5928	4132	4974
4	5939	2025	2158	2024
4	5587	5776	5209	4368
4	2026	1652	1653	404
4	5587	5776	5586	5597
4	5945	4841	1649	1648
4	5206	5562	5470	4201
4	4813	1652	2025	1651
4	4813	1651	1655	1656
4	5030	5915	5958	2206
4	5587	5589	5659	5588
4	2041	1666	414	34
4	4473	1981	1982	2034
4	5959	5677	4755	2289
4	3856	5250	4557	3883
4	3880	5298	3857	5264
4	3862	3857	3879	3864
4	3862	4904	3864	3879
4	2026	1653	405	404
4	5874	4753	5815	2498
4	3855	3862	3860	3861
4	4911	5961	5960	4526
4	5922	1999	2000	1990
4	3862	4908	3978	5962
4	3969	3974	3972	5090
4	5298	2765	5264	3880
4	3855	3857	3858	3860
4	4563	4562	5963	4559
4	406	5697	5696	34
4	4563	4565	5964	5963
4	5325	1946	1867	1913
4	5965	1832	1877	1862
4	2018	380	482	1984
4	4107	1905	5702	5961
4	4563	4564	3944	3946
4	4563	5966	3944	4564
4	5967	4885	5968	2955
4	5967	5968	2965	2955
4	5825	5855	392	1638
4	5967	4882	5864	2965
4	5885	1941	1965	1959
4	5967	2966	4880	2956
4	5167	1639	1638	1643
4	4804	5934	4806	1640
4	4103	1652	1656	1657
4	5967	4855	2956	4880
4	5511	3809	5969	5565
4	4542	5033	3943	5565
4	5933	2115	2028	400
4	3886	390	1648	1647
4	4813	1651	1656	1652
4	3886	390	1647	389
4	5030	4681	5958	3892
4	1702	1641	397	396
4	4544	5503	3943	5505
4	5461	4746	1965	5885
4	5436	5395	4586	4588
4	5887	1858	4314	1894
4	5511	2167	5510	5969
4	5511	5845	2050	2167
4	2210	5163	2195	2281
4	5511	5472	2050	5845
4	5970	2298	2349	2273
4	4687	1964	1859	1939
4	5958	2505	4755	5921
4	5511	3809	5472	5845
4	4664	4665	4666	4585
4	4029	5971	4407	5972
4	5817	1657	4103	1656
4	5945	1645	1640	1644
4	5886	1662	395	413
4	4027	4031	4034	4411
4	4684	1904	1947	1939
4	4033	4034	4028	4406
4	5908	5974	5973	1957
4	4029	5975	4030	4112
4	4029	5391	4407	5971
4	2785	2786	2789	4566
4	5932	1662	1658	394
4	5887	1858	4840	4314
4	4226	4575	4868	4573
4	5886	4807	5887	4808
4	5475	5401	1860	1975
4	4574	4224	4220	4871
4	4590	5836	5835	5854
4	4575	2785	4566	5976
4	4575	4871	2788	5976
4	4575	2788	4871	2789
4	4871	2793	4220	4575
4	5461	1965	5432	1959
4	5221	4903	3864	5249
4	4876	5221	5415	5625
4	4807	1663	1664	1659
4	4808	1662	1663	1658
4	4876	5415	5221	5977
4	4295	409	1661	1665
4	4295	1733	5978	409
4	4876	5222	5977	5221
4	4903	5222	5221	3864
4	5886	413	395	33
4	4876	5222	4875	5979
4	1774	1663	411	1664
4	4574	4576	5777	5980
4	4569	4574	4871	5980
4	4869	5777	5781	5981
4	5886	412	413	1894
4	1733	1665	35	409
4	4226	5513	4266	4573
4	4071	4839	5475	5401
4	4221	4227	4121	4223
4	1774	1663	412	411
4	4574	5777	5514	4223
4	4226	4266	4225	4227
4	4220	2797	4870	4224
4	4615	1672	1677	1678
4	2793	4870	4220	2797
4	1733	1665	410	35
4	4295	4315	1661	5818
4	4222	4224	2797	4218
4	4221	4226	4220	4219
4	5355	5447	5982	5983
4	4156	1694	1690	420
4	5354	5356	5357	5434
4	4615	1673	1672	1678
4	4926	5016	4930	5669
4	5886	1663	1662	412
4	5271	5398	4340	4275
4	5275	5984	5273	5277
4	4738	1719	1700	1699
4	5275	5442	5277	5278
4	426	1681	1682	1757
4	5276	5445	5275	5274
4	5674	1934	1962	1898
4	1775	1664	411	410
4	5273	5275	5276	5984
4	5277	5278	5271	5273
4	4295	5978	5985	5986
4	3966	5784	5987	4445
4	5938	1898	1810	1857
4	5571	1678	1684	1679
4	3966	5987	3965	5988
4	4927	5910	5989	5015
4	4954	5987	5990	5991
4	5357	5433	5467	5468
4	5357	5467	5992	5468
4	5357	5467	4953	5992
4	2043	1666	1667	414
4	5354	5355	5356	5274
4	5949	1824	1820	1772
4	5711	1767	346	347
4	5357	5467	4952	4953
4	5433	5354	5357	5434
4	2045	1667	1668	415
4	5355	5357	5983	5993
4	5357	4952	5445	5983
4	4610	5994	4883	4532
4	4506	2729	4492	4605
4	4610	4532	4531	4612
4	4610	5994	4532	4612
4	5384	5802	1776	1724
4	5377	2302	2424	2303
4	5016	5022	5995	5015
4	4610	4646	5994	4612
4	4647	4648	2717	5396
4	5762	5691	2256	2127
4	2049	1669	1670	417
4	4616	1666	1672	1667
4	4648	5396	2721	2717
4	5905	1853	1857	4998
4	1673	4614	4006	1668
4	4586	4634	2709	4589
4	4585	4589	4586	2709
4	4647	5396	2716	5110
4	4588	4589	2708	4894
4	5395	4589	4894	5110
4	4550	4646	4647	4551
4	4614	1668	1674	1669
4	4550	4589	4634	4586
4	2047	1669	417	416
4	5116	5117	4001	5123
4	5942	1680	422	421
4	4446	4447	4001	5836
4	4446	5140	5836	4001
4	4446	4447	5754	5114
4	4001	4668	5117	5118
4	4922	5021	5022	5996
4	2106	428	1687	429
4	5839	5754	5118	5840
4	4562	4559	5623	5963
4	4563	4562	4565	5963
4	3820	1669	2049	2047
4	5249	5925	4562	5623
4	1670	417	418	2049
4	4651	5109	3868	5821
4	2107	1687	1688	429
4	4561	4562	4559	5733
4	5185	5060	4972	4973
4	5058	5056	4133	5061
4	4928	4921	5997	5023
4	4638	2844	4796	2848
4	5060	5998	5216	5220
4	5060	5216	5998	5515
4	4972	5688	4134	5060
4	4133	5060	5061	4973
4	4133	5060	4973	4972
4	5999	419	1670	420
4	4906	4235	4217	5011
4	2051	419	36	418
4	5010	4906	4875	4130
4	1713	1782	4358	1772
4	5907	2347	2270	2265
4	4231	4235	4217	4906
4	4971	6000	2629	5766
4	4875	5979	5222	4906
4	3971	3970	3972	4782
4	4215	3971	4217	4233
4	4969	5061	4133	5056
4	5764	4710	4983	6001
4	4902	4907	4216	4908
4	4907	5180	3976	4908
4	4784	5180	3976	4907
4	5896	1680	1675	1674
4	3969	4216	3978	3970
4	4614	1668	1673	1674
4	3977	6002	3978	3976
4	4182	4184	4849	4183
4	4183	4185	4184	4583
4	4193	4195	4196	4197
4	4815	5137	4816	4183
4	5461	5432	5460	1959
4	4819	5786	4183	4816
4	5791	433	432	1689
4	4183	4849	4182	5121
4	4139	4131	4128	5151
4	4784	4907	4146	5180
4	4196	5896	6003	4198
4	3868	420	4757	3867
4	4146	5629	4141	5441
4	4136	4138	4124	4135
4	4651	5109	4846	1686
4	1757	427	426	1681
4	4618	1671	407	1676
4	4140	4971	5628	4972
4	4999	1900	1853	1854
4	4133	4132	4134	4972
4	4146	5724	5800	5441
4	4973	5185	6004	6000
4	4929	6006	6005	6007
4	5149	2627	5441	4141
4	4766	4762	4148	4756
4	4148	6008	1850	4147
4	6009	4334	2501	3874
4	3812	3895	4151	3894
4	4151	4756	4990	4155
4	1682	5408	1683	425
4	5680	435	2652	434
4	4912	5364	5365	4854
4	5896	1674	1679	1680
4	5953	5582	4622	4620
4	5470	5559	5562	5589
4	5207	4368	5209	5567
4	6003	1679	1685	1680
4	1683	1682	1677	5408
4	5534	5560	5549	5533
4	5560	5533	5535	6010
4	1751	1683	424	1684
4	4156	421	1694	420
4	5348	1895	1908	1869
4	4651	1686	36	419
4	1751	1756	425	5408
4	5562	5658	5559	5561
4	5561	5658	5559	5535
4	4192	5278	5386	5366
4	4192	5367	5366	5386
4	5448	4192	5386	4491
4	4363	4187	4490	4365
4	4363	4192	4490	4187
4	4491	4490	4192	5386
4	1759	409	35	427
4	4239	4275	4892	4063
4	5275	5278	5273	4276
4	4058	4063	4240	4061
4	5218	5220	5060	5216
4	6003	1684	1685	1679
4	4277	5732	4057	4394
4	4063	4239	4891	4892
4	5571	1678	1683	1684
4	4277	4279	4397	4278
4	4277	4394	4397	4279
4	4383	4892	4275	4063
4	5553	4892	4397	5809
4	4664	4590	5858	4668
4	4664	2704	5858	4591
4	4665	4002	4590	4668
4	4001	5836	4002	5140
4	4590	5140	4668	4002
4	1755	424	423	1684
4	5942	1680	1685	422
4	5117	4002	4668	4001
4	5283	5281	4430	4375
4	6011	1910	1864	1909
4	6012	433	1693	434
4	3896	1785	1816	1770
4	5279	4762	4761	5346
4	1751	1683	425	424
4	4760	5491	4761	3869
4	5491	4204	5279	4761
4	4762	5280	5279	4766
4	4889	5284	3875	3874
4	3865	3874	3875	3869
4	426	1756	1682	425
4	6013	1758	422	1685
4	5058	5056	5061	5064
4	4889	3874	3875	3871
4	4019	4017	4986	4270
4	5791	6014	1689	432
4	5213	5061	4969	5056
4	4019	4775	4780	4985
4	423	1684	1685	1755
4	4380	5604	5568	4062
4	5218	5060	5061	5216
4	1698	4147	439	422
4	6003	6015	6013	1685
4	4016	4025	4024	4026
4	4030	5975	5867	4112
4	4016	4025	4018	4019
4	4270	4019	4485	4857
4	1732	37	439	422
4	4985	4857	4858	4019
4	4382	4539	5605	4059
4	5243	5034	5244	5242
4	4399	5368	4398	5370
4	4399	5368	6016	5606
4	5948	1824	1825	1868
4	5528	4382	4059	4057
4	4399	5769	5368	5370
4	5639	5040	3986	4995
4	5039	1825	1822	1974
4	5314	5313	5639	4452
4	5639	5204	3986	5040
4	4594	5158	5157	5205
4	5639	3984	4599	3993
4	4599	4598	3993	3815
4	5371	4114	5406	5342
4	4117	6017	5371	4294
4	4117	4118	4122	2805
4	4117	5410	2805	4294
4	4561	4557	5250	5734
4	5221	5250	5837	5733
4	4555	6018	4563	4564
4	4555	3856	4556	5299
4	4557	2772	6019	2771
4	4557	4556	6019	2772
4	1688	429	430	2107
4	5764	4857	4983	4007
4	5793	430	431	2108
4	3997	5572	5714	4271
4	5765	5572	5714	3997
4	3806	5906	4643	3808
4	5439	2211	2193	2361
4	4273	4017	4018	4019
4	4273	4271	5764	5714
4	5764	6001	4983	4485
4	5820	6020	5309	5242
4	4331	4335	4338	4336
4	5309	4338	5312	5310
4	4285	5310	4338	4199
4	5312	5903	4281	4338
4	5655	4798	5428	5237
4	5259	5420	4388	4384
4	5793	2209	6021	2107
4	5259	5420	6022	4388
4	5259	6022	5420	5652
4	5259	4702	5652	5420
4	5259	5424	5260	5255
4	5253	5259	5255	5261
4	5448	5446	5444	4423
4	4413	4414	5446	4423
4	6014	432	38	431
4	5450	6023	5446	5445
4	4414	6023	5445	5446
4	5446	4414	4415	5445
4	4028	5975	4029	5972
4	4027	4410	4408	4030
4	4028	4031	4889	4890
4	4977	4410	6024	4409
4	4889	6025	4890	4031
4	4888	5284	4031	4030
4	4760	3872	3865	3867
4	5827	6026	4333	4889
4	5315	1721	1720	1781
4	5038	4147	1850	1785
4	4031	5826	4032	4333
4	5764	6001	4485	5765
4	5139	4983	4246	4244
4	4241	4983	4242	4485
4	4846	1686	1690	1691
4	4983	4007	4857	4982
4	4592	2659	2655	1754
4	6021	4845	2107	2193
4	5902	5793	6027	6028
4	3982	1691	1695	1696
4	5793	1689	1688	1693
4	4997	4336	4338	5903
4	4704	4710	4983	4711
4	4704	4244	4743	4711
4	3985	1690	1694	1695
4	4244	4711	4983	4982
4	5087	5089	5088	5004
4	5083	5088	5082	5081
4	5097	4299	5099	5087
4	5099	5087	4299	5085
4	4160	4084	5687	6029
4	4395	4396	4350	4401
4	5083	5085	4350	5084
4	5085	5369	5099	5368
4	5037	1816	1875	1770
4	4150	421	422	1698
4	3831	4070	3840	3837
4	4741	4299	5369	5099
4	4739	5369	4296	5430
4	6030	896	5156	5010
4	6030	6031	5011	897
4	6030	174	5010	6032
4	6030	6032	6031	173
4	6030	6032	173	174
4	4446	5100	5754	4448
4	6027	1693	1692	1697
4	438	4149	1698	1699
4	1719	1699	438	437
4	5754	6033	4447	6034
4	5101	5100	6035	5754
4	5839	5456	5754	5101
4	5723	4066	5717	6036
4	5839	6033	5455	4100
4	4446	5118	5754	5100
4	5707	1573	4496	342
4	4491	5447	5707	5386
4	5707	4490	342	4496
4	5386	5707	4491	4490
4	4491	5707	5709	4496
4	341	342	5707	4490
4	4522	4436	4632	5613
4	4038	4633	4959	4916
4	4737	1697	6027	1696
4	4519	5324	4520	4303
4	4745	5129	4747	5323
4	4742	4015	4258	4256
4	4745	4633	4249	5129
4	4625	4633	4038	4916
4	5704	438	1719	1699
4	3930	4041	6037	5351
4	4044	3931	5236	3929
4	4081	4162	4160	4080
4	5451	5453	4421	4946
4	4946	5451	6038	4421
4	4738	1695	1699	1700
4	3994	435	39	2651
4	4149	1699	1694	1698
4	5301	5436	5772	4552
4	3994	1718	1874	440
4	1696	1695	4737	1700
4	5301	5436	4002	5835
4	4665	4586	5301	4587
4	438	439	1698	1712
4	4550	5436	5301	4552
4	6012	5680	2652	434
4	4664	4590	4591	5858
4	4553	5303	4552	4550
4	5301	5303	4552	5302
4	4002	5301	4665	5436
4	3994	436	1718	440
4	4737	1696	1701	1697
4	4770	4772	4771	6039
4	4874	5519	4769	5517
4	4771	4876	4872	4733
4	6040	2986	2997	2987
4	4846	1691	1687	1686
4	4873	4874	4877	4905
4	5037	1822	1855	1816
4	3926	2691	2687	17
4	4771	4733	6039	4734
4	1855	1781	5201	1806
4	4771	6039	4772	5619
4	4070	4069	2278	2164
4	5205	1855	1822	1781
4	5249	5221	4876	5625
4	3994	1701	436	39
4	5249	4734	4876	4873
4	5230	5128	4672	5046
4	5230	5240	5231	5225
4	5230	4251	5128	5231
4	3985	4738	3814	4737
4	4651	4846	4845	1686
4	5230	5231	5239	4251
4	5230	5239	5231	5240
4	1765	1703	398	1649
4	5945	1702	1641	1645
4	5230	5509	4672	5239
4	4003	5941	4617	4614
4	5886	1702	396	1641
4	4684	1916	1971	1939
4	5941	4614	5379	3820
4	4065	4079	2896	4504
4	1708	1614	1615	375
4	1710	1612	1613	373
4	1612	5814	5795	1611
4	5941	2200	5379	2202
4	5174	5387	5178	5722
4	5941	2047	5379	2200
4	5814	1762	1704	1705
4	370	1705	1610	1704
4	1710	4106	1706	373
4	1707	1710	372	1612
4	5917	5911	1964	1861
4	5941	2201	4617	2045
4	4842	1648	3886	4841
4	5941	2045	4617	1668
4	5752	1621	1614	1620
4	5941	4614	1669	1668
4	4050	4980	4054	4049
4	4980	4049	5721	6041
4	4106	1708	374	1614
4	1709	1615	1616	376
4	3902	5165	1993	379
4	4106	1614	5388	1708
4	1616	5285	1711	5288
4	3901	4980	5721	2002
4	4066	4069	6036	5676
4	4106	1613	373	1710
4	4980	4476	4474	4475
4	1610	5474	5184	391
4	3831	4070	3834	3840
4	5288	29	377	1731
4	5373	6042	4676	4673
4	4980	4476	1991	4474
4	1708	1709	1615	5285
4	4676	6044	6043	6045
4	4980	1991	4476	2000
4	4054	4980	4476	5923
4	3901	4980	2002	1993
4	2855	1742	454	453
4	3852	3850	4311	4310
4	4649	5916	4650	4682
4	5458	4685	4087	4433
4	4087	4433	4685	4498
4	4797	1793	1735	1737
4	4682	4433	4686	4434
4	6046	1835	1790	1793
4	6047	1741	1790	1797
4	4629	5239	4628	4672
4	4433	4432	4498	4087
4	3818	5713	6028	2657
4	3818	5902	6028	5713
4	4689	4157	4081	4159
4	2875	458	1749	459
4	3991	3818	5713	3981
4	5375	1838	1803	1801
4	3991	3816	3818	3981
4	3818	4593	3815	3988
4	4691	5068	5070	4693
4	5504	2869	2865	2868
4	4691	4470	5644	6048
4	4688	4510	4511	4508
4	4501	4502	6049	4500
4	4544	2860	2857	2856
4	4688	4511	4691	4040
4	4693	4470	5070	4691
4	3809	5565	5511	3943
4	2847	1737	1735	451
4	5033	3947	4026	3940
4	5033	5234	3940	4026
4	2839	1740	450	449
4	4024	5033	5234	6050
4	3943	5033	4542	3940
4	4643	4644	6051	4642
4	2855	1742	453	1741
4	4022	4026	5033	3947
4	5052	1801	1803	1749
4	5558	1849	1873	1889
4	3805	5565	4022	6052
4	3805	5969	3809	5565
4	4088	5459	5986	4095
4	4009	4014	4260	4013
4	2843	1737	451	450
4	4502	2898	6049	4500
4	4088	4261	5986	4259
4	5432	4094	4089	4014
4	4431	4432	4438	4305
4	5793	6053	1692	1688
4	4438	4859	4861	4867
4	4438	4090	4867	5870
4	4438	5893	4305	5870
4	4436	4859	4861	4438
4	5283	4991	4375	4429
4	5281	4430	4375	5347
4	5343	5948	5949	4994
4	4760	4766	3867	4756
4	4766	5283	4989	4991
4	5650	1570	5649	345
4	3923	2086	558	2087
4	5640	1721	1783	1722
4	5236	4045	4670	5716
4	4509	4045	4042	4507
4	1700	1701	436	1718
4	6054	6055	4441	5840
4	4045	4670	5716	6056
4	5202	1767	1752	1806
4	4045	4535	4515	4630
4	4630	6057	4629	4045
4	1718	1700	437	436
4	5203	5711	5159	5706
4	5280	5347	5281	4375
4	6058	5706	5203	2667
4	3990	2277	3928	3919
4	4376	4993	4361	4375
4	4078	4502	4500	3832
4	4375	4374	4430	4181
4	4430	4177	4429	4375
4	3924	2666	2670	2085
4	4376	1876	1820	1908
4	5201	1720	1767	1806
4	3921	2669	3924	2665
4	5683	1770	3896	5684
4	4375	4177	4429	4426
4	1787	422	1758	37
4	5640	1783	1721	1781
4	4358	1825	1824	1782
4	4375	4429	4991	4426
4	4375	5347	4430	4374
4	1702	1765	397	1645
4	4808	5932	4804	5886
4	4887	5985	5000	5401
4	4840	1703	1815	1765
4	1643	4842	3897	4806
4	4840	1858	1815	1906
4	1775	410	1665	1664
4	4212	4306	4207	4206
4	4210	4304	5916	5877
4	4212	5715	4307	4206
4	4306	4307	4206	4212
4	5916	4687	4682	4649
4	5184	5795	1610	1617
4	4679	389	5028	1624
4	5486	1625	1626	1619
4	4649	5916	4210	4650
4	6059	5728	4543	1734
4	4105	1707	1612	1710
4	3939	6059	4543	3941
4	3908	3904	4208	3912
4	454	1742	2859	1734
4	4105	1613	1710	1612
4	2859	1734	1742	6059
4	3939	5728	6059	5563
4	6059	2859	3941	1742
4	6059	1742	6047	1797
4	5745	5252	2158	2116
4	1775	1664	1774	411
4	1786	1733	35	409
4	6059	1797	6047	3942
4	6059	3942	6047	3941
4	1733	1665	1775	410
4	3995	3998	4615	4619
4	4295	409	408	1661
4	4814	1655	1660	1656
4	4315	1775	1664	1774
4	4385	446	2827	2823
4	1651	4805	4813	1655
4	3998	4619	4713	5407
4	3998	5570	4713	5572
4	3995	3998	3996	4613
4	3996	3998	3997	5572
4	4006	4617	4005	4616
4	3894	3986	4995	4151
4	3813	3815	4599	3993
4	5945	1765	1645	1649
4	5887	1765	1858	1702
4	3811	4592	4593	5686
4	5886	396	413	33
4	5358	3986	3984	4843
4	4808	1663	5886	4807
4	6060	4441	6055	3968
4	5697	4616	1666	1671
4	3968	6060	4440	6061
4	2822	2059	508	507
4	4901	4898	1740	1796
4	3950	3953	6062	3957
4	4898	1796	1795	1740
4	5918	298	25	2815
4	3950	3957	6062	3959
4	3968	4439	3967	4440
4	3968	4441	5452	4439
4	5695	4260	4618	407
4	2830	505	2057	506
4	4385	1903	446	445
4	6040	4707	5610	4723
4	6040	4723	2987	4707
4	6040	2987	4788	2986
4	6040	6063	2986	4788
4	6040	2997	5611	4707
4	4285	5905	5674	4286
4	4196	4204	6064	4998
4	4193	4198	5492	4197
4	5385	1799	1748	1739
4	4193	5492	4195	4197
4	5382	2831	2832	2828
4	5573	5896	4196	4197
4	5697	2204	4010	2041
4	4204	5491	4193	4198
4	446	1903	5317	1739
4	5986	408	4261	5819
4	4085	4011	4091	4013
4	4096	4085	4097	4098
4	5308	2828	2825	2824
4	5385	447	1739	1748
4	408	4295	4095	5986
4	4013	406	5696	5169
4	5200	1834	1768	1830
4	5317	1834	1739	1903
4	5460	5459	4259	4088
4	4088	5986	4261	5819
4	4088	5459	4095	4087
4	2830	505	2021	2057
4	5984	2555	5277	2552
4	4802	5166	4800	5000
4	4074	4073	5166	4887
4	4801	4314	4800	5887
4	5383	1873	1878	1830
4	4803	4801	4800	4804
4	3887	4071	4802	4839
4	2041	1666	34	5697
4	3887	3891	3884	4801
4	5918	6065	5726	1581
4	5947	2488	2541	2492
4	5387	5488	5176	5178
4	4349	1578	5846	1577
4	1911	1925	5391	1912
4	1577	338	5834	4349
4	1723	337	4347	338
4	5391	1943	1925	1911
4	4347	338	337	4349
4	4349	1578	5798	4352
4	4359	1713	343	1722
4	5317	1725	1834	1903
4	5384	1768	1724	1830
4	4348	4349	5798	4352
4	4348	4347	4349	4353
4	5277	5278	4191	5554
4	2835	448	1738	449
4	4371	4189	5554	5719
4	1738	449	4901	2835
4	5278	5271	5366	5554
4	5366	4188	4192	5554
4	3817	4596	4592	4595
4	5277	5719	5554	4191
4	5680	435	434	1697
4	5554	4191	5719	4189
4	5554	5271	5277	5278
4	4621	5560	5470	6066
4	5562	5561	5660	5658
4	5562	5767	5561	4624
4	3994	1718	436	1701
4	6010	5589	5559	5470
4	5202	1753	1806	1752
4	5206	5209	5587	5597
4	5201	1806	1781	1720
4	4423	4414	5449	2507
4	5009	2087	2088	2172
4	5470	5562	5587	5589
4	5695	4260	4254	6067
4	5660	5586	5824	5659
4	5587	5659	5562	5824
4	5562	4624	5824	5767
4	1718	1719	1700	5682
4	5696	2199	34	2041
4	4152	4323	4608	4458
4	5681	1754	4592	2655
4	5137	4183	5631	4816
4	4183	5799	4816	5786
4	2652	2651	5681	2656
4	5685	1833	1807	1754
4	4931	4927	5132	4172
4	2663	443	442	1753
4	4847	4183	4848	5799
4	4815	5137	5578	4145
4	5137	4145	4818	5138
4	5631	4816	5852	4818
4	4051	4468	4053	4052
4	4468	4467	4512	4470
4	5481	5047	6068	5482
4	6069	1807	1855	1806
4	5481	5946	5478	5676
4	6069	1875	1855	1807
4	5723	5508	5047	5053
4	5681	1874	1754	441
4	6058	1767	444	1752
4	6008	1787	1944	1895
4	5723	5508	5946	6036
4	5723	6068	5047	5507
4	5723	6036	2163	5507
4	5723	2163	6036	5717
4	4149	5704	4147	3896
4	6070	6021	6071	2209
4	4558	5249	4562	5733
4	5979	5977	4876	5222
4	6072	5712	5806	2211
4	5107	5108	4845	2197
4	5696	34	2199	406
4	5221	5414	5625	5733
4	2667	443	1752	444
4	5250	4558	5733	5221
4	5202	1752	2663	1753
4	5221	5625	5414	5415
4	4924	4931	5214	4923
4	5742	6073	4923	4921
4	4170	4923	5742	6074
4	4596	2664	2660	2659
4	5696	2284	4010	5169
4	5743	904	6073	6075
4	4923	4931	6076	5667
4	4923	6076	4931	5214
4	4924	4172	4931	4581
4	4170	5020	5742	5023
4	5681	441	440	1874
4	4922	4170	4921	5023
4	5743	5667	4581	4923
4	5696	2041	4010	2284
4	4938	5666	4730	4811
4	5663	4938	4730	4940
4	2659	442	441	1754
4	5663	4789	5542	5678
4	4935	4810	4941	4811
4	5696	2199	5169	406
4	4935	4811	4938	4940
4	5168	4013	4098	4091
4	4091	2364	2283	5168
4	5710	346	1720	345
4	4151	1690	4156	1694
4	5315	1720	1721	345
4	5640	1781	1822	1783
4	5315	345	1721	344
4	6077	293	294	2679
4	6078	6079	6062	230
4	5064	4142	179	6076
4	5037	1855	1875	1816
4	5168	4091	2364	5169
4	4098	4097	5874	4092
4	4098	4097	5815	5874
4	4098	4309	5815	4097
4	6080	3821	5379	5492
4	4360	1772	1820	1779
4	5439	2280	2358	2361
4	4085	4310	4096	4097
4	4085	4087	4088	4095
4	4359	1722	343	344
4	4072	5815	4098	4309
4	5315	5853	1781	1720
4	5061	6076	4931	4145
4	5214	4924	4921	4929
4	5218	4145	5138	5219
4	2202	5380	2285	5379
4	4359	1722	1782	1713
4	4925	4931	5061	4929
4	4364	1713	342	343
4	6081	1714	1779	1715
4	4927	5138	5989	5670
4	4924	4926	5016	4930
4	6082	1829	1819	1766
4	4340	5398	5834	5847
4	5553	5271	4892	5809
4	439	422	4147	1732
4	3820	5379	5941	2047
4	4340	5846	4275	5847
4	4339	4401	4341	5004
4	3895	5704	4149	3896
4	4359	1721	1722	344
4	5147	6083	2693	2694
4	4348	4352	5084	4350
4	6077	5875	6084	2675
4	2138	2139	6060	2246
4	5720	2685	2681	2680
4	4382	4394	4063	4057
4	4275	5271	4892	4340
4	5539	5544	5291	5641
4	5008	5009	2137	3923
4	4364	342	1713	1714
4	5539	4546	4549	4547
4	4549	5592	4545	4546
4	5293	5539	4549	5291
4	1937	5808	5346	1944
4	5709	1573	1587	1572
4	5038	1850	1974	1785
4	4360	1713	1772	1714
4	5759	1571	1586	1585
4	4549	5293	5297	5593
4	6081	1829	1715	1779
4	4709	4549	5537	5543
4	1869	5343	1820	1908
4	6085	6086	1876	1864
4	4709	6087	5772	6088
4	3820	4614	1669	5941
4	5539	5543	4549	5291
4	4365	1714	1715	341
4	5537	4533	4547	4600
4	4290	5499	4291	4289
4	5367	1588	1574	1589
4	4934	5679	5545	4789
4	5545	5544	5292	5291
4	5331	1872	1865	1911
4	5117	5438	5147	4667
4	5431	5726	1725	334
4	4423	2450	2506	2449
4	5409	2809	5405	2813
4	5541	4789	5545	5679
4	5852	5951	5545	5799
4	5541	5852	5545	5799
4	5545	5544	5799	5850
4	5944	5118	5122	6054
4	5773	339	1576	340
4	5834	338	339	1773
4	5289	5297	5291	5293
4	5289	5290	5291	4787
4	5846	1577	1578	1592
4	4347	1723	338	1773
4	5384	1830	1724	1776
4	5539	5641	5293	5592
4	4590	5857	5858	5140
4	4346	1723	1724	337
4	5645	5292	5290	5545
4	5538	4600	4601	4584
4	4385	2823	445	446
4	5540	5537	5611	5931
4	5540	5291	5545	4789
4	4385	2823	5431	2819
4	4981	4528	4052	4469
4	4981	4052	4528	4521
4	5192	5193	5308	5306
4	445	25	5918	334
4	4307	4305	4981	5893
4	5307	1725	335	1768
4	2827	1739	447	446
4	4050	4308	4471	4208
4	4981	4305	4521	5893
4	4741	4740	5409	2813
4	5422	4622	5822	5955
4	4621	5582	4622	5581
4	4622	4620	5582	4621
4	4622	4620	5579	6089
4	6046	1841	1835	1793
4	4622	4102	5822	6089
4	4622	5581	5582	5421
4	5573	1673	1679	1674
4	5073	2867	1743	1744
4	5429	2857	2853	2856
4	4800	4807	4804	5887
4	4204	5937	6090	5851
4	4204	4205	6090	4998
4	4204	5937	6013	5938
4	4196	4204	4198	6064
4	5361	5294	5295	5551
4	5546	5816	6091	5365
4	5363	4880	4854	4855
4	4698	2840	2844	2841
4	5364	4909	5739	4884
4	5191	5558	4832	6092
4	5194	6093	5385	6092
4	5194	4832	5381	6093
4	5191	5384	5195	5830
4	4335	2465	2457	2382
4	5187	4751	5189	4832
4	2859	1734	455	454
4	5078	1843	1789	1800
4	5318	5194	6092	5191
4	5262	4005	5263	2367
4	4618	1676	4714	5407
4	5187	5192	5198	5197
4	5905	1934	5674	1857
4	1758	422	1685	37
4	5999	4198	5492	3869
4	4193	5491	5492	4198
4	5492	5999	3869	5493
4	4714	408	409	1681
4	5492	5999	5493	3821
4	5569	1809	1808	1853
4	4714	408	1681	1676
4	5492	3821	5493	6080
4	4999	5905	1853	1902
4	5492	5379	4197	3820
4	3956	5147	6083	2693
4	5492	5896	5999	3820
4	3996	5569	4196	5571
4	6094	2203	2051	2440
4	5492	4198	5896	4197
4	3944	2778	519	2774
4	3944	518	2778	2069
4	6095	1881	1885	1919
4	3944	5966	6096	4564
4	3944	5966	2154	2069
4	5104	5757	5756	5136
4	3944	2071	3946	2774
4	3944	2154	5966	5964
4	2071	3945	2070	3944
4	6025	5827	4031	4889
4	3865	3871	3872	3875
4	5504	2864	2861	2860
4	5698	2875	2876	2872
4	5279	5808	5867	5347
4	4337	4332	5493	5491
4	425	5408	1683	1751
4	4712	1681	1759	427
4	5570	1751	5408	1756
4	1901	5572	5714	5765
4	5407	1682	1677	1676
4	4889	5638	4427	6097
4	6047	1741	1797	1742
4	5269	2273	2262	2122
4	4748	1967	1952	1950
4	5268	5269	5266	2042
4	6098	1736	1789	1801
4	5638	3872	5283	5336
4	4888	4430	3872	5281
4	2863	1734	1743	455
4	5284	5866	4030	5867
4	5493	5491	4332	3875
4	5279	4204	5851	5346
4	5103	3958	3925	2692
4	3951	6099	5457	6035
4	3865	3872	4760	3875
4	5279	4761	4204	5346
4	2863	456	455	1743
4	4760	3872	5279	3875
4	4543	2859	2863	2860
4	3875	5493	3874	4332
4	3872	5283	3867	4760
4	5838	5952	5852	4818
4	4449	4746	5461	5885
4	5799	5951	5545	5850
4	5852	5951	5952	5838
4	4618	1677	1671	1676
4	5570	5407	4713	1805
4	1757	1756	1682	426
4	5838	5852	4143	4818
4	5541	5930	4816	5786
4	5570	1808	1756	1805
4	5679	4817	5666	4143
4	5663	5678	5679	4789
4	1749	1736	6098	1801
4	5664	5663	5678	5666
4	2867	1744	456	1743
4	5679	4143	4816	4817
4	5541	5678	4816	5930
4	5624	4884	5619	4909
4	2871	1736	458	457
4	5249	5625	5619	5623
4	1789	6098	5078	1744
4	4872	4876	4875	4733
4	4873	5619	5249	4734
4	5075	2871	2872	2868
4	2871	1744	1736	457
4	4713	1805	1856	1854
4	5221	5414	5733	5837
4	5617	5625	5626	5623
4	4734	5624	5625	5415
4	5624	4886	4734	4884
4	4511	2267	2300	2301
4	5478	2885	5053	2884
4	5470	6100	5212	4443
4	5208	4284	4443	5212
4	5052	1745	459	1749
4	5208	5587	4368	5588
4	6055	6101	5142	6102
4	5470	6103	6010	5589
4	5589	6104	5588	5590
4	6105	1730	465	464
4	4202	5421	4622	5420
4	5801	1987	1988	1978
4	5105	5104	5756	5509
4	5581	5582	5421	5954
4	5507	2019	2163	2160
4	6106	1745	1746	460
4	5140	6107	5103	4830
4	4621	6066	4443	4620
4	4203	4384	4622	5579
4	4202	5561	5581	4722
4	4621	5580	5560	6066
4	5735	5575	5736	4570
4	2883	461	460	1746
4	5735	4560	4570	5736
4	4257	1811	1933	1899
4	5460	1959	1897	1917
4	5735	2916	6108	5849
4	4257	1933	1759	1931
4	5735	5575	6108	2916
4	5978	1786	1733	1851
4	5104	5043	5135	5077
4	5052	1803	1745	1749
4	5735	6109	5734	2916
4	5735	4560	5849	6108
4	4344	4368	5209	5776
4	6059	1791	1734	1742
4	6110	2353	2352	2264
4	6103	5590	5589	5470
4	5207	4283	4282	5567
4	5597	4344	5209	5776
4	4283	5782	4444	5783
4	2039	474	1977	475
4	5224	4541	4487	5076
4	5174	3899	5175	5390
4	6111	3955	6107	5103
4	4544	5504	4542	5503
4	4544	2860	5504	2861
4	5504	2869	5265	2865
4	5067	1997	2007	1998
4	5265	5233	5504	5503
4	5504	2864	5073	2868
4	4405	4768	3830	3825
4	5526	1818	1828	1866
4	4028	3830	4768	5898
4	6112	5331	5898	3829
4	5557	4751	4750	5393
4	3823	3830	3825	5378
4	6105	1730	464	1794
4	6113	2006	1769	1728
4	5659	5586	5824	5587
4	4065	2896	2893	2892
4	5192	5197	5200	5082
4	6114	5776	5588	5595
4	5588	4265	5595	5776
4	5588	6114	5595	5600
4	4877	4874	5516	5182
4	5182	4907	4877	4910
4	4903	3863	3864	5249
4	4903	3864	4904	3879
4	4130	4877	5516	4907
4	5479	2883	2887	2884
4	1747	2891	5352	1750
4	5245	1838	1840	1882
4	4902	3879	4903	4904
4	4227	4223	4345	4263
4	4824	4828	5189	4825
4	4262	4381	4263	4264
4	4228	4381	4263	4262
4	4226	4573	4868	5512
4	4221	4229	4228	4225
4	2003	465	1730	466
4	4121	4223	4227	4263
4	4221	4218	4222	4122
4	4121	4263	4227	4228
4	2894	2022	489	2120
4	4694	4643	4695	4697
4	4415	6038	4946	4951
4	4415	5446	5445	5983
4	5445	4414	4415	4945
4	4415	5465	4944	4946
4	4415	5983	4944	5465
4	5729	1743	1792	1800
4	6105	465	40	464
4	4415	4951	4946	4945
4	4415	5465	5447	5983
4	3966	5579	5987	5988
4	4822	4833	4698	4834
4	5784	6115	5468	5467
4	5784	4954	6116	5467
4	3966	3963	5784	5940
4	3963	6115	5468	5784
4	3966	5784	4387	5940
4	5784	5936	4442	4445
4	4943	4946	4955	4957
4	2009	471	1717	1716
4	6041	2010	2011	2001
4	3902	379	5419	5165
4	6117	6119	6118	4954
4	377	29	5288	1616
4	4213	1764	1812	1760
4	1764	1760	4213	1711
4	4952	6118	6116	5356
4	4943	4945	4952	4953
4	1731	377	2011	29
4	2034	6120	4473	2159
4	4952	4953	5467	4954
4	4952	5356	6116	5467
4	4952	4945	5445	5983
4	5396	2716	5229	2720
4	4648	4878	2717	2721
4	4545	4551	4547	4548
4	6121	1716	1726	472
4	2011	473	1726	1731
4	6122	1784	1731	1726
4	4702	4703	4549	5543
4	4750	4749	4825	4403
4	5878	5877	6122	1784
4	5168	2199	2364	2283
4	4549	5297	5543	4703
4	4547	4551	4611	4548
4	5539	4546	4533	5642
4	5539	4546	4547	4533
4	5931	5930	5541	5538
4	6099	3953	3951	6123
4	5453	3951	6124	5457
4	5453	4967	3951	3967
4	5101	3950	3954	5452
4	3950	5102	3951	5101
4	3950	3953	3951	5102
4	1717	5923	1716	1771
4	482	1984	2032	2018
4	3951	6123	3953	3952
4	3950	3952	3957	3960
4	6125	1999	2009	2000
4	3951	5456	5101	6035
4	3951	6035	5101	5102
4	4872	4877	5516	4875
4	4873	4734	4771	5619
4	5066	1998	2008	1999
4	4771	5517	6039	4732
4	4876	5979	4875	6126
4	5979	6032	4906	4875
4	4875	4764	4733	4765
4	4872	4874	4771	5517
4	4872	5517	4733	4764
4	4183	4583	4848	5786
4	4847	4848	4852	5799
4	4847	5631	5799	5796
4	4847	5796	5799	4852
4	4215	4908	4902	4216
4	4793	3948	4799	3949
4	2007	469	1727	470
4	5687	1729	466	1730
4	4046	1804	1845	1802
4	4130	4217	4906	4907
4	4906	4875	4877	5222
4	4130	4875	5010	4125
4	6127	467	1729	1769
4	6128	1777	1818	1870
4	5353	2891	2892	2888
4	4875	4125	6129	6130
4	3976	4907	4216	4784
4	4784	5724	5725	5180
4	4902	4905	4903	4877
4	4106	1706	1761	1940
4	5309	6020	4977	5242
4	4130	5516	4877	4875
4	5418	2031	2109	2114
4	4907	5179	5182	5516
4	4755	4211	3843	5921
4	5516	4877	5182	4907
4	4813	4716	5251	4718
4	407	4104	1653	406
4	5655	4798	4727	5428
4	5063	5057	177	5183
4	3898	379	378	1630
4	5388	1622	1615	1621
4	5753	1861	1761	1760
4	5063	5056	892	893
4	5063	5183	6131	4144
4	5063	6131	177	178
4	5388	1615	1708	1614
4	4969	4132	4971	4976
4	4132	5633	2614	5928
4	5459	5986	4095	5985
4	4313	1774	1817	1775
4	4313	1733	1665	1775
4	5814	1707	1762	1705
4	4971	4972	5766	5628
4	1707	1705	1611	371
4	4140	4971	4132	5633
4	4969	4971	4972	4970
4	4214	1812	1764	1814
4	4206	5715	5163	5891
4	2205	4950	2114	2210
4	4529	4535	2355	2432
4	5574	1973	1905	1971
4	3830	5378	3828	5195
4	5917	1905	1861	1964
4	3823	3830	5378	3828
4	3826	5005	3828	5378
4	6121	5878	6041	1726
4	4370	3825	3829	4768
4	3901	5721	3906	2002
4	5053	2880	2884	2881
4	3829	3827	5331	3828
4	6132	1771	1821	1826
4	5898	3829	5331	3830
4	4725	4727	4726	4898
4	4754	4212	4211	4949
4	5922	2000	1991	1990
4	6133	1780	1717	1727
4	6121	1771	1778	1716
4	3823	3827	3828	5001
4	2033	1983	480	1982
4	4845	2106	2107	2193
4	4596	2663	2664	2659
4	4737	1700	1695	4738
4	5682	1700	4738	1719
4	4148	3896	4149	4147
4	1874	5681	1833	1718
4	5681	1874	1833	1754
4	3829	4425	6112	5330
4	5560	6010	5535	5559
4	5562	5559	5658	5659
4	3818	5686	2660	2656
4	5713	561	2662	6134
4	5640	1722	1783	1782
4	5551	4722	5561	5536
4	5949	4358	1824	1772
4	2106	1686	4651	4845
4	5562	5659	5658	5660
4	5561	5660	5658	5661
4	5561	5661	5658	6135
4	5561	5536	6135	5658
4	5984	2552	2554	2555
4	5561	5536	4722	6136
4	2106	4845	2107	1687
4	4354	4360	4364	4358
4	5554	4188	4192	4189
4	4846	1686	5109	1690
4	340	5804	1766	1715
4	5553	4373	4342	4371
4	5554	4188	5398	5366
4	4453	5314	5316	4456
4	5718	5719	5653	2519
4	5442	4192	5278	5386
4	1787	1732	422	37
4	5152	5522	5322	5521
4	3816	3993	3984	3992
4	4051	5322	4468	5152
4	5793	2107	2108	2209
4	4468	4052	5152	4527
4	4516	5152	4052	4527
4	5948	1868	1869	1824
4	5152	5522	5521	5148
4	4468	5152	5322	5521
4	5148	4037	5521	4527
4	2010	1726	473	472
4	4239	4063	5344	4061
4	5271	5398	4275	4276
4	5273	5274	4239	4893
4	6121	1778	1726	1716
4	6137	4576	4571	6138
4	4339	4341	5001	5004
4	5067	6125	2007	1727
4	5528	5769	4399	5370
4	4275	4276	5398	5847
4	3919	2433	2277	2293
4	6070	2280	2361	2209
4	4340	5847	4275	5398
4	5103	5141	5140	5142
4	4595	1753	442	1754
4	4446	5100	4448	4830
4	4446	4830	5140	5100
4	5140	6107	4093	5143
4	5140	3925	5103	6107
4	5140	5143	3925	6107
4	5704	1712	1770	1719
4	4988	6140	6139	5335
4	5118	5140	5142	5100
4	6141	2293	2444	2433
4	5050	5481	5053	5946
4	4994	5950	5700	5313
4	3935	4675	3936	5374
4	5640	1783	1822	1825
4	3936	5374	4675	5373
4	5347	1944	5808	1908
4	4333	2593	2457	2502
4	4463	2545	2496	2594
4	5348	1908	1895	1944
4	3936	5373	4675	4673
4	5942	4759	421	422
4	5608	4573	6142	4566
4	3935	3936	3930	5351
4	5639	3993	4599	5158
4	4068	3930	4164	4080
4	5333	5637	5638	2580
4	5339	3930	3936	5351
4	3835	4068	3933	3930
4	4066	3835	3934	5481
4	5411	2185	2254	2146
4	3933	3935	5351	4046
4	4422	5668	4419	4454
4	6143	2577	5718	5636
4	5719	2558	2519	6143
4	6143	2587	5913	5719
4	4463	4464	4988	4462
4	6143	2582	5912	5913
4	6143	5913	2587	2582
4	2587	2558	5719	6143
4	4395	4350	5099	5368
4	6122	1731	1784	1764
4	4980	1992	4474	1991
4	5877	1784	1832	1814
4	4399	4398	4057	5531
4	5078	1840	1789	1843
4	4351	4399	5368	4395
4	5093	4398	5406	5094
4	5099	5093	4396	4395
4	4398	4396	4395	4394
4	4451	4356	4453	5314
4	4760	5281	5279	3872
4	4888	3872	4427	4889
4	5283	4429	4427	5637
4	4889	4427	4890	6097
4	5723	5508	5053	5946
4	2895	463	1794	464
4	4427	5637	4428	5843
4	4070	2164	2320	2275
4	5352	1750	1802	1747
4	6017	5601	6144	4294
4	6017	6144	5601	6145
4	5779	6146	5601	6145
4	5687	1813	1729	1730
4	6049	1976	474	41
4	5601	6145	6146	6017
4	2886	491	2019	492
4	6017	6147	5371	6148
4	6147	5342	6017	5371
4	6017	6145	6148	6149
4	4500	2120	2365	2279
4	4117	6017	5342	5371
4	5687	1813	1730	1794
4	2891	462	1747	463
4	4794	4732	4735	4940
4	5665	5968	2954	2964
4	4794	6150	2963	2953
4	2895	1747	1794	463
4	4794	4940	4735	5665
4	2954	5665	4794	4795
4	4794	5196	6150	4763
4	4857	4984	4986	4985
4	5764	4270	4008	4271
4	4857	4270	5380	4008
4	5380	4984	4986	4857
4	5135	2877	5136	2873
4	5764	4711	3997	4007
4	4983	4982	4711	4007
4	4177	4430	4424	4181
4	4463	2542	2594	2444
4	4987	6151	5108	5712
4	1868	5948	1850	1974
4	4430	4427	4177	4424
4	4176	4425	4370	4190
4	4177	4424	4427	4428
4	5283	4429	4375	4430
4	5280	5279	5281	5347
4	4669	4675	4674	5482
4	4149	1694	1699	1695
4	5683	1719	1770	1833
4	3982	1691	1696	1692
4	5054	2880	5049	2884
4	4177	4178	4426	4179
4	5332	4991	4429	4426
4	5332	4178	5334	4426
4	5878	1832	1784	1778
4	4964	1959	1938	1941
4	5325	1867	1946	1914
4	4945	4944	4415	5983
4	6042	1928	1921	1888
4	5965	1832	1826	1877
4	6152	1771	1780	1821
4	5446	5447	4415	4418
4	5045	2881	5106	2877
4	5448	5447	5446	4418
4	6015	1809	1810	1755
4	5442	5278	5275	5386
4	6008	5346	5348	1944
4	5447	5982	5465	5709
4	6015	1755	1751	1809
4	6015	1684	5571	1751
4	5447	5758	5465	5464
4	5447	5709	5465	5758
4	4363	5448	4491	4192
4	5758	4496	5703	4491
4	4417	5447	5464	4418
4	4408	4112	4030	4410
4	4027	4032	4031	4411
4	5935	1943	1942	1969
4	4410	4032	5866	4030
4	5054	5042	5049	5698
4	4981	4469	4308	5890
4	5804	1766	339	340
4	3821	2051	6094	2203
4	4471	4469	4053	4466
4	2198	2051	419	36
4	5785	2261	2308	2258
4	4307	5715	4308	4206
4	5807	1909	1864	1876
4	6011	1864	1910	1865
4	4306	4434	4432	4821
4	4726	2843	2844	2840
4	5511	4542	5503	3943
4	4998	1853	4999	5905
4	4047	4048	4049	4304
4	4307	4308	5715	5890
4	4395	5093	5368	5099
4	4398	5406	5094	5731
4	5698	5375	5043	5052
4	5097	5797	5094	5372
4	6092	1849	1799	1878
4	5505	2050	2858	2048
4	5095	5797	5094	5097
4	6039	4735	4733	4732
4	4771	4732	4733	5517
4	4714	1759	1681	409
4	4771	4732	6039	4733
4	1854	5569	1808	1853
4	5570	1808	5572	5569
4	4771	4734	6039	5619
4	4196	5569	4999	4998
4	6039	4772	5619	5739
4	6080	2440	6009	2366
4	5921	4211	3843	5488
4	4770	4812	5739	6039
4	3820	1669	4614	1674
4	4705	4619	5407	4713
4	5407	1756	1757	1805
4	5572	1808	1805	1854
4	3951	6124	6123	4967
4	1678	1683	1677	5408
4	3951	3950	5452	3967
4	4996	5904	2370	2285
4	4712	1811	1805	1757
4	5840	6055	4441	3968
4	5127	1949	1918	1919
4	5754	5456	5868	6035
4	5728	1792	1791	1839
4	5839	5840	5452	5101
4	5839	5101	5754	5840
4	5840	4441	5454	5452
4	5763	2256	4777	6050
4	5881	2896	4079	4504
4	1930	5974	1926	1957
4	5881	6105	4663	6153
4	5189	5199	5400	4749
4	5881	2900	6153	4079
4	4799	1837	1797	1790
4	5881	6153	4663	4079
4	4245	4253	4250	4246
4	6106	1788	1746	1745
4	5045	5053	2880	5054
4	5691	2044	2122	2127
4	5563	1839	1836	1886
4	4860	4632	5643	4249
4	4860	4015	4745	4248
4	4860	4632	4436	5615
4	4249	4250	4245	4253
4	3885	4678	5404	4679
4	3942	1837	1836	1797
4	4958	5812	5125	5129
4	4960	4962	4433	4449
4	5728	1734	1792	1743
4	5728	1791	1792	1734
4	5488	5483	5387	5176
4	6154	1871	1867	1914
4	2033	2034	6120	4474
4	3904	4208	3912	4896
4	6133	1823	1780	1777
4	4249	4523	4628	5844
4	4632	4630	5614	5844
4	4039	4673	4627	6042
4	4669	5046	4671	4676
4	5520	1871	1915	1877
4	4044	4045	5236	4042
4	6154	1823	1867	1821
4	4036	4045	4509	4513
4	4959	4043	4037	4916
4	6029	1813	1794	1747
4	4043	5235	6155	5341
4	4626	4916	4039	4627
4	4944	6157	6156	5457
4	6029	1802	1813	1747
4	5453	3967	4968	4967
4	4046	1804	1847	1845
4	3954	3968	6055	5840
4	4978	4831	4899	4897
4	6020	5749	2347	2296
4	5035	3948	4793	3949
4	5457	6157	6156	5869
4	4900	4726	2840	2839
4	5330	1865	1872	1827
4	5453	6124	4946	5457
4	5497	2135	2058	2057
4	5452	3967	5453	3951
4	6124	4946	5465	4421
4	6124	4944	5465	4946
4	5436	4391	5395	4588
4	6112	1864	1865	1819
4	5328	1819	1773	1766
4	5971	1910	1911	1865
4	4585	5436	4586	4588
4	4590	5835	5836	4002
4	4664	2700	5858	2704
4	5327	1953	1952	1968
4	5835	5772	5436	6158
4	5436	5854	5835	6158
4	6158	6088	5772	6087
4	4629	6110	4672	5482
4	4618	5697	4616	4004
4	4713	1811	1856	1805
4	4311	4075	4312	4724
4	6039	4733	4735	4734
4	5314	5640	5315	5205
4	6039	5739	4735	4812
4	4733	4736	4734	6126
4	4361	4375	4426	4181
4	1680	5942	1675	421
4	5808	1963	1909	1908
4	4651	419	3868	5109
4	6013	1755	1810	1758
4	4876	4875	4733	6126
4	6032	4875	5010	4906
4	5373	1888	1844	1893
4	4876	4877	4875	5222
4	6008	1787	1895	1850
4	6008	1787	1850	1732
4	3814	5902	3982	4737
4	4733	4764	4732	4763
4	5128	5246	5228	5226
4	4671	5128	5046	4672
4	5128	5131	5226	5228
4	5128	5046	5043	5245
4	5128	5131	5231	4251
4	5905	1934	1857	1902
4	5714	4286	4271	4999
4	3854	4683	3853	3845
4	6080	2288	2200	2203
4	5043	5044	5046	5230
4	5128	5223	5228	5230
4	5035	3947	3949	5672
4	4544	5429	2856	2857
4	3937	3947	3940	3938
4	3937	3949	3947	3938
4	4107	1940	1905	1762
4	5961	1905	1973	1762
4	5135	2873	2876	2877
4	3810	3947	3809	3948
4	4075	5959	5915	4724
4	5419	1630	3900	5494
4	1624	1625	5032	5486
4	5945	4841	4840	1765
4	4016	4021	3810	4022
4	4839	1863	1906	1860
4	5933	5939	5252	2158
4	5933	5939	2158	2115
4	5933	1642	5252	5167
4	5917	1939	1971	1964
4	3850	5874	4097	4092
4	4755	2544	2505	2289
4	4432	4092	4087	4433
4	5603	3023	3033	3034
4	3850	4434	3849	4821
4	4598	4596	3817	4594
4	5735	5737	5736	5575
4	5916	1859	1862	1904
4	3991	3988	3818	3815
4	5884	1948	1968	1965
4	3811	3815	3818	4593
4	5924	2016	5487	2013
4	1763	1815	4526	1703
4	5000	1831	1817	1863
4	1907	1938	4686	1904
4	406	4104	1653	2017
4	4593	3817	4598	4596
4	5251	2025	2126	2158
4	5031	5488	5484	5487
4	5817	1656	4814	1660
4	1851	5985	1831	1733
4	4315	1664	1665	1660
4	4313	1733	1831	5985
4	4593	2664	4598	3988
4	2660	3818	3988	4593
4	5817	4814	4716	5166
4	4593	2664	3988	2660
4	6025	5947	5828	2539
4	4499	5485	5484	5488
4	2351	2303	5006	2427
4	6159	1776	1723	1827
4	4663	6160	4079	6153
4	4663	4161	1995	2004
4	5881	6153	2899	6105
4	4081	4161	4162	4662
4	1889	5393	1912	1873
4	2577	6143	5718	2519
4	4663	2003	6153	6105
4	4663	4161	2004	5687
4	4110	5392	5391	1925
4	4898	1796	1846	1795
4	5033	5234	6050	5763
4	5672	1883	1923	1924
4	6051	4697	4643	4694
4	4024	5033	4026	5234
4	5331	6112	5971	1865
4	4016	4026	3947	4023
4	5974	1891	1930	1926
4	5065	5069	5489	5521
4	5826	6161	2456	2513
4	5507	2020	2019	2160
4	5326	1953	1921	1928
4	5373	1888	1847	1844
4	4069	2023	490	2022
4	5069	5322	6125	6152
4	6086	1829	1876	1864
4	5521	5069	4472	5065
4	6082	1864	1819	1829
4	5490	5489	5065	5067
4	5330	1773	1819	1827
4	5069	5489	6128	5067
4	5330	1865	1827	1819
4	5069	6125	5066	5067
4	4370	4425	4424	5898
4	3828	5197	5001	5329
4	6162	2039	2038	2279
4	5375	1801	1840	1838
4	4176	4190	4370	4189
4	5756	2224	2266	2165
4	5476	1880	1847	1888
4	5226	1882	1840	1881
4	3823	3829	3827	4372
4	3827	5329	5001	6159
4	3823	3825	3826	5378
4	5640	1782	1783	1825
4	5039	1816	1974	1822
4	5817	1655	4716	4814
4	5817	4103	4718	1652
4	5683	1770	1875	1833
4	5704	1770	1712	1785
4	4716	4718	4312	4715
4	4684	1939	1947	1916
4	5817	4716	1655	4813
4	5174	4948	5722	5178
4	4687	1939	1859	1904
4	5817	1656	4103	1652
4	4261	409	1786	1759
4	5986	1786	4261	409
4	5986	4261	408	409
4	4747	1972	1965	1967
4	4005	2201	2287	2204
4	1681	5407	4712	4714
4	4963	1907	1877	1915
4	5408	1756	425	1682
4	4104	5817	4316	5818
4	5817	4316	4716	4312
4	5324	1915	1914	1948
4	4104	5817	1657	4103
4	3930	4041	4164	6037
4	1850	1974	5948	5038
4	1732	422	4147	6008
4	3872	3871	5336	5638
4	4043	4041	5340	6155
4	4043	5235	5341	4037
4	4041	4040	4042	4164
4	4036	4041	5235	4040
4	4984	2369	2441	2287
4	4043	4039	4037	4916
4	5339	6163	3936	4673
4	5139	1961	1951	1932
4	3938	1836	1883	1886
4	5608	4567	4566	6096
4	4744	1966	1949	1961
4	5563	1836	1839	1791
4	5608	6165	6164	6142
4	5728	1792	1839	1842
4	5608	6166	4567	6167
4	4050	4208	4896	4049
4	4302	4962	4304	4303
4	4048	4305	4306	4962
4	4799	1835	1837	1790
4	4206	6168	4471	5163
4	5909	1923	1883	1884
4	4212	5891	4206	4209
4	3908	3912	4210	3911
4	5502	4105	5389	5485
4	5656	1846	1892	1841
4	5267	5074	5232	5225
4	6159	1827	5329	1776
4	5072	5133	5232	5265
4	4541	5233	3940	4542
4	5133	2868	5075	2872
4	5071	5076	5074	5077
4	4050	4051	4476	4053
4	1873	1849	5558	1878
4	6161	6025	4034	5828
4	3947	3940	3938	4489
4	5200	5197	5384	5082
4	5829	1911	1912	1872
4	3998	5408	5570	5571
4	4614	1673	4613	4197
4	3820	4614	4197	1674
4	4197	1673	4613	5573
4	2262	5691	5269	2122
4	5226	1840	1843	1881
4	3995	4007	4003	4008
4	5127	1918	1949	1950
4	4710	1856	1932	1901
4	3995	4615	4006	4619
4	1672	4006	1673	4615
4	1683	5408	1678	5571
4	5639	3984	3993	4452
4	3984	4451	4452	5313
4	6045	1922	1928	1893
4	5477	1746	1804	1750
4	5240	5239	2294	5755
4	4484	1887	4482	1927
4	6169	2379	4535	2460
4	4990	3894	4995	4151
4	4520	5885	4963	5884
4	3813	3986	3984	4599
4	5105	2165	2160	2224
4	5358	3986	4843	4151
4	4148	4149	4151	4155
4	4995	5950	5313	5040
4	4488	1839	1886	1887
4	4994	4995	5039	5950
4	5506	1923	1936	1924
4	4965	3960	3957	3952
4	1835	5673	1891	1841
4	4965	3957	5720	5899
4	4986	2443	6170	2442
4	6052	2345	2250	2252
4	5673	1884	1835	1891
4	3957	6171	3952	3953
4	3957	6062	6172	3953
4	5793	6014	431	1689
4	5675	1934	1902	1955
4	5793	2107	430	2108
4	5793	431	430	1689
4	2369	2368	5380	4986
4	2286	2368	5380	2369
4	5793	5902	3981	6071
4	4792	4797	5428	6046
4	5896	5942	6003	4198
4	6173	1942	1963	1969
4	5896	3820	4197	1674
4	4194	4999	3996	4271
4	4759	1758	1787	422
4	5503	2861	2865	2862
4	4196	4197	5896	4198
4	5427	1793	1790	1735
4	5573	5571	5896	1679
4	6170	2430	2426	2443
4	6174	2425	2354	2430
4	4088	4095	5986	5819
4	1812	4213	1760	1861
4	5911	1812	1964	1861
4	4095	5459	5985	4887
4	4104	4316	4095	5818
4	408	4104	4095	5818
4	3905	377	3906	5288
4	5818	4095	408	4295
4	5341	1823	1913	1867
4	4095	5166	5818	4316
4	4693	2036	1979	1980
4	5343	1824	1869	1820
4	6094	2051	2437	2440
4	2375	6175	2299	2293
4	4310	4095	4887	4087
4	5985	5986	4095	4295
4	4095	4887	5166	4316
4	4503	2039	1977	2038
4	6155	1945	1870	1866
4	6107	3031	3042	3032
4	4808	4814	5929	1659
4	5494	1629	1636	1630
4	4808	4807	4803	4814
4	6055	5142	6054	6102
4	5163	5495	4895	4950
4	4808	1663	4807	1659
4	5165	1984	379	380
4	4961	1862	1907	1904
4	4808	1658	5929	5932
4	4214	1814	1859	1812
4	5486	5485	5404	4105
4	5389	4107	5404	4105
4	6020	6176	5749	2296
4	3909	4211	4948	5178
4	5502	5389	5175	5485
4	6177	486	485	1985
4	4712	1811	1757	1759
4	5729	1800	1842	1843
4	6152	1823	1821	1780
4	5389	3903	5176	3910
4	5864	2966	5865	4880
4	5693	2266	5756	5755
4	5476	1880	1845	1847
4	5126	1918	1881	1919
4	5864	5816	2975	4881
4	5967	5864	2966	2965
4	5864	4881	4882	4880
4	5967	5864	4882	4880
4	4483	1954	1927	1935
4	5811	1935	1924	1936
4	4986	2368	2442	2369
4	5556	5398	5554	4188
4	5553	4339	4340	4342
4	5805	4749	5399	5400
4	4192	5804	4188	5366
4	4192	5554	4189	4191
4	5427	6047	1741	1790
4	4190	4425	5897	4186
4	4176	4190	4186	4425
4	4331	4031	4032	4333
4	4110	5935	5391	4408
4	4408	4404	4029	5391
4	5729	1842	1800	1792
4	5126	1882	1881	1918
4	4750	4752	5393	4751
4	5883	1842	4488	5566
4	4979	4752	5391	5393
4	4028	4424	4427	4430
4	4033	4404	4752	4407
4	6036	491	2023	2019
4	4402	5199	4405	5378
4	5329	1872	1776	1827
4	4750	4751	4825	4749
4	4402	5195	4752	4751
4	5852	5952	5895	4818
4	5329	5384	1776	1873
4	5631	5852	5796	5895
4	5541	4816	5799	5786
4	5399	2342	2302	2259
4	5889	5895	5852	5952
4	5799	5852	5796	5631
4	5951	5888	5799	5852
4	4468	4527	5521	4512
4	4103	2026	1652	1653
4	5152	4303	4055	5520
4	4047	4052	5152	4051
4	5416	2447	2109	2111
4	6047	4799	1797	1790
4	4961	1907	1862	1877
4	4047	4304	4055	4303
4	5152	5322	5522	5321
4	5922	6125	5322	5923
4	4054	5321	5322	4051
4	5986	4295	409	408
4	5322	6132	5923	6152
4	4129	5146	4786	4784
4	4146	5630	5629	5800
4	6095	1920	1919	1885
4	5724	2182	5725	2236
4	4484	1887	1920	1885
4	4020	2426	2345	2346
4	2855	1741	5564	1742
4	3820	1669	1675	1670
4	5630	2227	5724	5181
4	5564	1742	1741	6047
4	3869	3875	4760	5491
4	5724	5145	2182	5800
4	3869	6094	5999	3868
4	5506	1902	1900	1936
4	5811	1935	1936	1900
4	5324	1914	1946	1968
4	379	3902	378	1993
4	6120	4473	4474	2034
4	6154	1821	1867	1871
4	6168	2281	2271	2162
4	4724	5815	2544	2362
4	5390	1621	1627	1628
4	5493	6080	2440	6009
4	4193	5492	4337	4997
4	4754	2505	2446	2373
4	5069	5521	5322	5522
4	5493	3821	6094	6080
4	4266	5595	5514	4576
4	6178	2342	2259	2258
4	5595	6179	5596	6180
4	5595	5585	6114	5776
4	5829	1912	1873	1872
4	5595	4932	6114	5585
4	5590	5208	5591	5588
4	3942	3937	6047	3941
4	4266	5596	4573	6180
4	6047	5564	1742	3941
4	5595	6114	5832	6179
4	5340	1921	1913	1945
4	5324	1914	1968	1948
4	4086	5460	5461	5432
4	4259	1897	1958	1931
4	5874	4432	3850	4753
4	5588	6114	5600	6104
4	5978	1851	1897	1786
4	4679	5184	5404	3885
4	4499	3847	5404	5389
4	4686	1938	1947	1904
4	5404	3885	5184	4911
4	5404	4679	4678	5486
4	4499	5488	5176	5485
4	5048	1803	1844	1788
4	6045	1888	1893	1928
4	4499	5404	3847	3846
4	4309	4310	4095	4316
4	6001	1954	1901	1932
4	4615	4619	3998	5407
4	1929	1930	4109	5974
4	1899	4704	1811	1856
4	3852	5401	4074	3851
4	4309	4095	4104	4316
4	5815	4312	4311	4309
4	6167	6166	4932	5832
4	5130	1882	1918	1922
4	3850	4097	5874	4753
4	4085	4087	4097	4092
4	5919	4143	4142	4144
4	5909	1926	1884	1891
4	5506	1902	1936	1955
4	5262	2548	4010	2284
4	5765	1900	1901	1935
4	4143	5666	5919	4817
4	4615	5408	1678	1677
4	2851	5564	5427	4640
4	5679	5666	4817	5678
4	4482	1927	1887	1886
4	5666	5219	5062	4811
4	5838	4143	5666	5219
4	5135	5045	2877	2876
4	5838	5952	4938	4941
4	4258	1933	1960	1899
4	5663	4937	4790	4934
4	5541	4816	5852	5799
4	4984	2491	2441	2369
4	5663	5664	4940	4730
4	5425	4722	5546	4721
4	4722	5872	4723	4720
4	6044	1952	1922	1950
4	4723	4722	4721	5546
4	4333	2501	2593	2502
4	5971	1910	1943	1911
4	4701	5425	4721	5421
4	6097	5843	5947	2541
4	4721	5421	5425	4722
4	4721	4702	5652	4707
4	6090	1937	1898	1962
4	4721	5652	4702	5420
4	5525	6116	4442	6181
4	5276	5349	5356	5274
4	5356	5274	5349	5525
4	5274	5344	5349	5525
4	6139	6151	2360	2436
4	3937	6047	5564	4799
4	5525	5356	6116	6182
4	6008	4759	1787	422
4	6003	4198	6013	6064
4	5525	4442	6116	5434
4	4651	36	2198	419
4	5808	1944	1963	1908
4	4061	4060	4435	5434
4	5434	4060	4435	4442
4	1956	4109	1929	1930
4	5274	5354	5525	5356
4	5461	1959	4964	5885
4	415	1667	2043	2045
4	6183	1972	1966	1960
4	5245	5128	4676	5130
4	6045	5245	5373	4676
4	6059	1797	3942	1791
4	4685	1938	4964	5458
4	5459	1851	1917	1897
4	3939	3942	6059	3941
4	5614	5613	5615	2494
4	5458	1947	1938	1917
4	4739	4297	4296	4299
4	5051	5048	5052	5375
4	4675	5482	4669	5046
4	6184	2497	3871	3874
4	5379	5904	4996	2285
4	5006	2424	2492	2427
4	5044	5046	4672	5047
4	4549	5291	5543	5297
4	6170	2443	2590	2430
4	4739	5405	4741	5369
4	4709	5537	4549	4547
4	4963	1915	1948	1941
4	5540	5539	5544	5291
4	4947	2447	5473	5416
4	4554	4703	6185	5593
4	5291	5641	5544	5292
4	5917	1905	1964	1971
4	5574	1975	1973	1971
4	4498	3849	3850	4434
4	5324	1914	1915	1871
4	3853	3851	3845	5403
4	5326	1913	1921	1946
4	4964	1941	1938	1907
4	3889	5252	3890	5167
4	4519	4516	4520	4517
4	3845	3851	5574	5403
4	3847	3845	3846	5702
4	6173	1909	1963	1942
4	3845	3846	5960	3851
4	4111	1962	1969	1937
4	4498	3853	3849	4434
4	1945	5341	6155	1870
4	3854	3841	3849	3843
4	3901	1993	2002	378
4	4745	4437	4746	4094
4	5402	5401	4887	3852
4	4290	5498	5499	5497
4	4451	5313	4357	5314
4	4453	4418	4419	5464
4	5700	4992	4357	4361
4	4497	4459	4426	4355
4	5332	4462	5334	5335
4	6183	1972	1958	1965
4	4462	5335	4991	4988
4	4744	1960	1966	1961
4	4461	4426	4361	4991
4	4963	1915	1941	1907
4	4462	5334	4460	4459
4	5083	5084	5081	5086
4	5574	1916	1975	1971
4	391	1704	1610	5474
4	4718	1652	4103	2026
4	4677	2116	2113	2027
4	6114	6186	5559	4915
4	6114	5832	5842	4915
4	4483	1954	1920	1927
4	5282	1919	1920	1951
4	4747	4746	5323	1965
4	5585	4572	5595	4932
4	5885	1965	1941	1948
4	5657	6187	4932	4933
4	6114	5842	5832	6179
4	4532	4534	4533	5134
4	4301	4300	5499	6188
4	5539	5642	5544	5641
4	2043	2041	5697	1666
4	4533	4612	4531	4532
4	5540	5538	5931	5541
4	4533	5134	4534	5544
4	4109	1956	1929	1970
4	4612	4546	4533	4611
4	5147	2697	2698	2693
4	2211	5108	5107	2197
4	5538	4584	4533	4600
4	5538	4583	4534	4584
4	4110	1943	1969	1970
4	4111	1962	1956	1969
4	5538	5544	4533	4534
4	4109	1957	1956	1962
4	5425	6189	5294	5551
4	4489	1886	4482	4488
4	5425	5297	5294	6190
4	5765	1901	1954	1935
4	4701	5425	5426	4703
4	5563	1886	4489	4488
4	6044	1928	1922	1952
4	5610	4787	4788	5362
4	5581	4722	5425	5421
4	5326	1921	1953	1946
4	5419	5418	380	1637
4	5689	2377	2454	2390
4	5381	4828	4832	5193
4	5070	4473	1989	1990
4	3940	4489	5563	3938
4	5557	1889	1890	1848
4	5938	1810	1898	1852
4	5194	5381	4832	5193
4	5381	6093	4828	4833
4	5194	5381	5382	6093
4	5269	2273	2122	2153
4	4293	4301	5083	4296
4	34	5697	5696	2041
4	5089	5005	5088	5004
4	2199	34	2017	406
4	5083	5088	5089	5082
4	5082	5197	5384	5802
4	5088	5004	5005	5001
4	5488	5487	5813	5387
4	6043	1928	1952	1953
4	3997	5765	5572	4710
4	4308	4471	6168	4469
4	4466	4479	6168	4469
4	5866	5867	4112	4030
4	4013	407	5170	5819
4	4293	4296	5192	4292
4	5867	6173	5975	5807
4	5410	5405	5409	2809
4	5972	4028	5975	4430
4	5807	5975	5867	4430
4	6191	5996	4171	5022
4	6191	6192	2156	2233
4	6191	2157	5022	2230
4	5365	5816	5362	5546
4	5360	5290	4934	5552
4	5360	5552	5361	5290
4	5361	5294	5290	5295
4	4741	4299	5097	4740
4	2004	1729	467	466
4	5245	1893	1838	1882
4	2887	1750	462	461
4	4084	1729	1813	1828
4	5477	1750	461	1746
4	4501	1985	1986	1976
4	6029	1813	1802	1879
4	5352	1750	1804	1802
4	5663	4937	4938	4940
4	5816	4790	5362	4788
4	5663	4934	4790	4789
4	4789	5542	5816	4881
4	5360	5365	5364	5363
4	5260	5822	4102	6193
4	4070	3837	5248	5716
4	5478	2889	5946	2885
4	5422	5259	5260	4390
4	5259	4384	4622	5420
4	4670	6056	6194	5716
4	3828	5195	5378	5197
4	2039	474	1976	1977
4	5422	5822	4622	4102
4	5422	4102	5260	5822
4	6177	1976	486	1985
4	4099	4390	5260	5254
4	5253	5260	5254	5255
4	5350	1828	1879	1866
4	2038	475	1977	1978
4	3832	2897	2894	2893
4	5425	5954	5421	5426
4	2005	467	1769	468
4	5526	1769	1828	1818
4	5676	2894	2890	2893
4	5425	5294	6189	6190
4	4549	4702	4709	4554
4	5068	1988	4158	1997
4	5350	1845	1866	1879
4	5294	5295	5551	6189
4	5425	5551	5294	5546
4	2038	475	2039	1977
4	5663	4938	4937	4934
4	5610	4787	5294	5297
4	4721	5421	4722	5420
4	5160	3920	3916	3921
4	2037	476	1978	1979
4	6195	1978	476	2038
4	4722	5872	6091	5873
4	5534	5560	5533	5535
4	4721	4722	4720	5420
4	2006	1728	468	1769
4	4912	5535	5533	6196
4	4202	6136	5561	4722
4	1987	4503	1977	1978
4	4722	5420	6197	4720
4	4202	6136	4722	6197
4	4560	6167	5736	4559
4	1980	2036	1979	477
4	2037	2036	477	1979
4	4560	4570	4567	6198
4	4891	5344	4239	4063
4	4239	5271	4892	4275
4	4500	2279	2365	2039
4	1960	4258	1899	1961
4	4056	4062	4063	4061
4	4063	5344	4061	4062
4	4537	4240	5354	5434
4	1980	477	478	2036
4	4239	5271	4275	4276
4	4893	4892	4239	5272
4	5160	3920	2669	2673
4	4891	5732	4057	4277
4	3939	4542	4541	3940
4	2035	2036	1980	478
4	4158	1987	1996	1997
4	3921	2664	5203	2668
4	5511	5510	4542	5565
4	5350	4046	1845	1879
4	4473	1981	1980	1990
4	3943	5472	5511	3809
4	5923	1716	2009	1717
4	4405	4768	3825	5376
4	4027	4409	4835	4404
4	3921	3924	3989	2665
4	4035	4406	4837	6161
4	4035	4034	4406	6161
4	5828	6025	4034	4890
4	1981	478	479	2035
4	4034	5828	4406	6161
4	4777	2349	2348	2262
4	5520	1877	1826	1871
4	4473	1981	1990	1991
4	5520	1871	1826	1821
4	5878	1778	1826	1832
4	5584	5586	5585	5776
4	4475	1984	1983	1993
4	6132	1826	1778	1771
4	2009	471	1716	472
4	3897	1643	4806	5167
4	4477	2281	2162	2195
4	5587	4368	5588	5776
4	5776	5585	6114	5659
4	5418	2031	1637	2012
4	5893	5892	2374	5890
4	1982	4474	2033	1983
4	5514	5776	5595	4265
4	5587	5776	5659	5586
4	5776	5598	5597	4344
4	5916	1814	1862	1859
4	5792	6199	5091	5501
4	3974	5091	5792	3980
4	6200	2623	6199	5792
4	4474	1982	1992	1983
4	4681	5027	5030	5031
4	4947	4949	2205	2447
4	2032	481	1984	482
4	5404	5961	5814	4107
4	4222	5602	4869	5601
4	4068	4508	3836	4689
4	5514	4576	5585	6201
4	4574	4576	5514	5777
4	4869	5980	5981	6202
4	4869	5777	5778	5781
4	4948	5473	4947	4950
4	4560	6109	5849	6203
4	30	2031	380	2018
4	4475	4474	1992	1983
4	5877	1832	1862	1814
4	5102	3022	3032	231
4	4869	4870	6202	5602
4	5465	5759	4944	6157
4	5477	1788	1804	1746
4	5353	2887	2891	2888
4	5758	5465	5464	5462
4	6124	4946	5457	4944
4	6204	5349	4435	5525
4	5045	5508	5106	2881
4	5990	4954	6117	6116
4	6160	4079	2900	2901
4	2006	469	468	1728
4	5525	4435	6181	4442
4	5784	4442	6116	6181
4	6160	485	1994	1985
4	6116	4954	6117	6118
4	1986	4503	1977	1987
4	5965	5877	4055	1832
4	5801	1988	4693	1979
4	5476	1880	6163	1845
4	5525	5356	6182	5349
4	4952	6116	6118	4954
4	5839	4100	5114	6033
4	5789	5944	5943	5839
4	6120	2159	2034	2121
4	5789	5943	4956	5455
4	6128	1777	1870	1823
4	6128	1777	1728	1818
4	3847	3846	5404	5702
4	4693	1979	1988	1989
4	4688	4510	4690	4511
4	5455	5456	6205	6033
4	5455	6205	4956	4100
4	5795	5814	4105	5404
4	4621	5581	4202	4624
4	4474	1982	1991	1992
4	5425	4703	6190	5426
4	4203	5579	4445	4384
4	4161	1729	2005	2004
4	3842	4680	4499	3892
4	5610	5425	5297	5294
4	5067	6113	6128	1728
4	4473	1981	1991	1982
4	5878	1778	1784	1726
4	5581	5425	5551	6206
4	3907	3911	3910	5911
4	4980	2000	2001	1991
4	4202	4722	5421	5420
4	5891	2205	2373	2290
4	5581	5425	6206	5954
4	5581	5425	5954	5421
4	4552	4709	6088	4554
4	5771	5772	5609	4551
4	5488	5813	5178	5387
4	4554	6088	4552	5302
4	5540	5543	4787	5611
4	5610	5543	5297	4703
4	3916	3913	4657	4659
4	5159	5710	5157	4659
4	6153	484	2003	1994
4	2896	4065	4504	2895
4	3922	3921	3920	3924
4	4064	2888	2892	2889
4	5477	1750	2887	461
4	4663	6160	4505	4079
4	4663	1994	2004	1995
4	4124	4135	5179	4125
4	4163	1995	4663	4161
4	4510	2260	2357	2134
4	4161	2005	1995	2004
4	5516	5517	5518	4874
4	4875	5010	4125	6130
4	4161	1995	2005	1996
4	4135	5215	4764	4123
4	5509	2264	2352	2224
4	5488	5813	5920	6207
4	2007	1727	469	1728
4	5068	1997	1998	1988
4	4130	5011	4217	4128
4	4065	2896	2897	2893
4	5487	5920	5031	5488
4	4691	4512	5644	4470
4	4171	4328	6208	4577
4	6133	1777	1780	1727
4	4692	2267	2161	2272
4	2008	471	470	1717
4	4165	4328	6209	4171
4	4922	5996	4173	5020
4	6152	1717	1780	1771
4	5402	1863	5401	1916
4	4311	4312	4073	4310
4	4165	4172	4170	4581
4	4980	2002	1993	1992
4	4514	2272	2355	2300
4	3906	2002	377	378
4	6041	1726	2011	2010
4	2011	29	473	1731
4	6122	1764	1784	1814
4	4165	4579	4173	6209
4	4171	5022	4922	5015
4	4171	4172	5113	5015
4	5881	2899	2900	2896
4	6105	465	483	40
4	6113	1996	2005	2006
4	4326	6210	4578	6211
4	6211	4168	4578	4326
4	4326	6211	5017	6212
4	6105	465	2003	483
4	2899	1794	464	2895
4	6153	484	483	2003
4	3893	3851	4074	4071
4	2004	5687	466	2003
4	3831	3836	3837	3840
4	4501	4505	1986	1985
4	4663	2003	2004	1994
4	4785	5156	5011	5155
4	6125	1727	2008	2007
4	4127	5179	4124	4138
4	2005	467	2004	1729
4	4084	5350	5526	1828
4	4129	4128	4785	5151
4	2008	1717	470	1727
4	6127	4161	1729	2005
4	6127	1828	1769	1729
4	2006	2005	1769	468
4	4785	5156	5153	4128
4	4785	5153	5155	6213
4	5526	1818	1728	1769
4	6113	1997	1996	2006
4	4785	5151	4128	5153
4	2007	2006	1728	469
4	4973	4926	6000	6004
4	5067	1728	1727	2007
4	6128	1777	1727	1728
4	5067	2006	2007	1997
4	4134	5060	5688	5515
4	4973	6214	4926	6004
4	5062	5219	5061	5216
4	2008	2007	1727	470
4	5066	2007	2008	1998
4	2009	2008	1717	471
4	6125	2008	2009	1999
4	4692	2267	4511	4690
4	4133	5060	4136	5055
4	5923	2010	2001	2000
4	5070	1989	4473	4693
4	4134	5060	5515	4136
4	5484	5487	5488	5483
4	2009	1716	5923	472
4	6041	2011	2002	2001
4	4867	2448	6215	5870
4	5722	1635	5177	5387
4	5923	2009	2010	2000
4	4973	5186	4926	6214
4	2011	473	2010	1726
4	4681	4680	5488	5921
4	4926	5218	5186	4973
4	4281	5312	4017	5903
4	4969	4133	4974	5056
4	3824	5653	4373	4366
4	4033	4405	4836	4406
4	4027	4030	4408	4029
4	4028	4407	3830	5898
4	2034	1982	479	1981
4	5417	1636	1635	383
4	4407	4033	3830	4752
4	3899	1621	1628	1622
4	3824	4370	3829	4372
4	4687	1859	1964	1812
4	2016	385	5924	1633
4	5924	1633	385	1634
4	3851	5401	6216	5403
4	5813	2372	2111	2110
4	4103	1653	2017	2026
4	5251	2126	2421	2158
4	4529	2432	2495	2494
4	3823	3826	4342	5001
4	5673	5035	4798	4793
4	3826	5004	4339	5001
4	5416	2109	2014	2111
4	5417	382	2014	2012
4	4947	2111	5813	6207
4	3826	3825	4366	5006
4	5376	4405	5006	3825
4	4733	4734	4771	4876
4	5402	1896	1916	1947
4	5402	1863	1916	1896
4	2029	386	1632	387
4	5032	1631	1632	1625
4	5028	388	1624	389
4	5032	1624	1631	1625
4	5168	5170	4013	5169
4	4903	4877	4876	5222
4	5855	1650	1654	1655
4	1631	387	5031	1632
4	2016	1632	386	1633
4	2013	5924	2016	385
4	5487	2029	2110	2016
4	4902	4906	4877	3879
4	5312	5311	5903	4336
4	5924	5487	2016	1633
4	5924	384	2030	1634
4	5619	4734	5739	4884
4	5625	5626	5623	5733
4	5624	4734	5619	4884
4	5620	5532	5617	4909
4	5620	5739	5619	4772
4	5617	5619	5623	5618
4	2017	34	405	406
4	5031	1631	2015	387
4	5442	4191	5443	5277
4	4949	2372	2373	2447
4	5554	5278	4191	4192
4	5366	5773	5803	5804
4	5031	2112	2029	2015
4	5031	2110	2029	2112
4	4338	4199	6217	4997
4	4192	5367	5386	4490
4	4188	5773	5366	5804
4	2032	2018	1984	5164
4	5418	1637	2031	380
4	4196	4205	4204	4998
4	5367	5773	5803	5366
4	4947	5473	2205	4950
4	5813	2110	2111	2030
4	4072	2017	2283	2196
4	5773	5556	4188	5398
4	6059	1797	1791	1742
4	3832	2897	2898	2894
4	5521	5522	6155	5341
4	5065	5067	5489	5069
4	5566	1885	1843	1842
4	6049	41	486	1976
4	5065	5070	5066	4472
4	4692	2036	4693	2035
4	6155	5521	5235	5489
4	4334	4332	6009	4336
4	5322	4472	5521	5069
4	5226	1843	1885	1881
4	6057	2379	2460	2431
4	5644	4467	4530	2272
4	6044	1950	1922	1918
4	5065	5521	4512	4472
4	2882	492	2020	493
4	5987	6218	6181	5990
4	6181	6218	5579	4443
4	6181	4284	4442	4435
4	4284	6219	6204	6181
4	5211	6204	4284	6219
4	5536	4856	6135	4913
4	5361	5362	5294	5546
4	4854	6091	5536	4856
4	5365	6091	5536	4854
4	2379	4514	4535	2420
4	4522	5613	4438	4436
4	4438	5613	4861	4436
4	4516	4303	4519	4520
4	4046	3933	5350	5351
4	4431	4517	4302	4438
4	4522	4438	6220	4521
4	4431	4517	4436	4437
4	4522	4438	5613	6220
4	5318	1878	1799	1834
4	2834	504	2021	505
4	4749	5399	4823	6178
4	4421	4415	6038	4946
4	5497	2135	2125	2214
4	4416	6038	4421	4415
4	6124	5457	6099	5869
4	6221	2927	6108	5575
4	5453	4421	5463	5701
4	5452	3951	5453	5457
4	5497	2214	2263	2135
4	5943	4957	6119	4956
4	6124	4421	5462	4967
4	4292	4289	4291	2825
4	5452	5453	4439	5451
4	4421	5451	6038	5701
4	6124	4421	5465	5462
4	5499	2058	2135	2184
4	6053	1687	1691	1692
4	6072	2211	2360	5712
4	5572	5570	5569	3998
4	4416	2386	2388	2455
4	5085	5369	5368	5876
4	5769	5368	6016	4399
4	5769	6147	5368	5370
4	4365	341	342	1714
4	3928	2152	2085	2145
4	4398	5732	4057	5531
4	3919	2277	2433	2358
4	5741	1584	5647	6157
4	3991	5439	3981	6070
4	6058	347	21	444
4	5681	5685	1754	1833
4	5668	2376	2449	2375
4	6058	444	1767	347
4	5528	5370	5529	5770
4	3989	2085	2152	2084
4	4383	4540	4275	5846
4	5093	5368	5369	5371
4	4056	5604	4282	4380
4	5283	4427	4429	4430
4	5793	6014	6071	2108
4	3822	5682	4738	5683
4	4028	4424	4430	5972
4	3869	3874	3875	5493
4	2038	475	1978	476
4	4028	4427	4888	4430
4	4427	5947	4768	4890
4	5242	5820	6020	5907
4	5069	5522	6128	6155
4	6137	6222	6108	2918
4	5478	2888	2885	2884
4	5479	2887	2888	2884
4	4069	2022	2120	2278
4	5340	1845	1880	1945
4	4760	3872	5283	5281
4	6037	1845	1945	1866
4	6056	2300	2379	2301
4	5332	4429	5283	5637
4	4693	1980	1979	1989
4	5529	6223	4345	5768
4	6042	6163	5476	1888
4	5529	4120	5406	5531
4	5529	5406	5342	5370
4	6049	2902	486	487
4	4379	4120	5529	5531
4	4379	4381	4263	4119
4	4263	5342	4120	4121
4	6160	485	484	1994
4	4122	5601	4121	5342
4	4117	4122	4120	5342
4	5406	5093	4114	5371
4	4113	4121	4122	4118
4	4922	4170	4171	4172
4	4170	5742	5020	2619
4	3831	3833	3838	3832
4	6110	2431	2428	2352
4	6049	1976	2039	474
4	6198	6224	4568	6018
4	5340	1880	1921	1945
4	2272	4514	4530	5644
4	4173	4579	2634	6209
4	4173	2634	4579	5480
4	4922	5996	4171	4173
4	3836	4510	3837	3840
4	2647	6209	5996	2633
4	5996	2633	6209	4173
4	4173	5480	2619	2633
4	3997	5764	4007	4008
4	5904	4997	4195	4996
4	4270	5380	4008	4996
4	3937	3941	3943	5564
4	5380	4007	4857	4008
4	5508	2886	2882	2885
4	4018	4273	4272	4017
4	5231	5240	5241	4779
4	1745	460	6106	2879
4	5717	2164	2275	2163
4	6068	2275	2264	2163
4	4473	1990	1980	1989
4	4194	4286	4999	4271
4	5048	1803	1838	1844
4	4999	5905	5714	4286
4	6170	4986	4019	4017
4	4792	5673	6046	5428
4	5764	3997	4271	4008
4	5381	5308	5190	5193
4	4824	4827	5190	4828
4	5190	2833	4828	4827
4	5189	5195	5199	4749
4	5507	2163	2264	2160
4	5105	2264	2224	2160
4	399	2028	1646	2027
4	5939	2024	1650	1651
4	4682	4434	3854	3853
4	4673	5373	6042	5476
4	4822	4834	4700	5594
4	4824	5190	5189	4828
4	4724	2212	2362	2544
4	5187	5193	4832	4828
4	5722	383	2014	5417
4	5473	2109	2205	2114
4	5920	2112	2291	2110
4	6046	4792	4799	5673
4	6207	2447	2111	2372
4	5488	5920	5031	4681
4	3806	3808	5907	5906
4	5489	6128	5067	6113
4	1634	5722	2030	5924
4	4824	4823	4825	4749
4	5190	5188	5308	6225
4	4178	5843	4180	4428
4	4178	4428	5637	5843
4	2024	2025	403	1651
4	5334	5912	4179	4178
4	5332	4178	5637	5334
4	5798	5084	5727	5081
4	4724	2212	2544	2289
4	5252	2116	2027	2028
4	4724	5677	2289	2544
4	4867	2549	4861	2448
4	3886	390	5184	1648
4	3889	5745	4077	4719
4	4352	1578	5846	4349
4	4348	4353	4349	4352
4	5939	4805	4813	1651
4	5933	1638	5825	401
4	5933	2028	2115	2158
4	3888	3890	4677	5028
4	5798	5727	1579	336
4	5798	4352	1578	1579
4	3996	4613	5573	4197
4	31	2027	388	2015
4	5492	4197	5379	4195
4	4212	4949	4754	5891
4	5933	1642	400	2028
4	4196	6003	6015	6064
4	5896	1675	5942	4758
4	5418	2018	2031	2114
4	4196	5896	5571	6003
4	5417	1637	5494	1636
4	4980	4475	1992	1993
4	5904	4997	6009	5492
4	5164	1984	5165	2018
4	4010	2041	2204	2284
4	4003	4197	4195	5379
4	4304	4961	4650	5916
4	4949	2447	6207	2372
4	2031	1637	2012	381
4	5178	4947	5813	6207
4	4047	4054	4304	4049
4	4210	4304	4650	5916
4	4054	4304	4049	5877
4	4473	2035	1981	2034
4	4054	6041	6121	5878
4	4303	4055	5965	4304
4	2035	1980	1981	478
4	5520	5965	4303	4055
4	4304	5965	4303	4961
4	2034	1982	2033	480
4	5801	2037	1978	1979
4	5372	4741	5097	4740
4	5372	4740	5411	5409
4	6120	4479	4467	2255
4	4747	1968	1967	1965
4	6048	2161	2159	2272
4	6198	4571	4568	6224
4	4693	2035	2036	1980
4	2035	1981	2034	479
4	4054	5322	5923	4476
4	5099	4741	4299	5097
4	6048	2161	2035	2159
4	2037	476	1979	477
4	5801	2037	1979	2036
4	4937	5552	4934	4936
4	5739	4884	4734	4735
4	5873	6091	5546	5816
4	5620	5547	5532	5364
4	5136	2877	2874	2873
4	3833	4066	5676	4069
4	4937	5364	5739	5363
4	4669	4674	4044	4670
4	3954	6055	3956	5142
4	6054	5118	5122	5142
4	2516	4524	4523	5111
4	5839	5840	5944	5454
4	6036	2023	2164	2163
4	6133	1727	5067	6128
4	4504	2895	2891	1747
4	6049	487	2365	488
4	5100	6111	6035	4448
4	6049	6177	486	2902
4	5839	5456	5455	6033
4	5754	5840	5101	5100
4	3831	3839	3840	3834
4	3836	4510	4508	3837
4	3836	4067	4068	4082
4	5970	2298	4779	2349
4	3831	3836	3839	3838
4	4247	4524	4243	5111
4	5139	1949	1951	1961
4	5125	4958	4627	5812
4	5566	1842	1887	1885
4	4253	4958	5129	4249
4	6215	4861	4438	5613
4	4744	4258	1961	5139
4	5762	2046	2127	2166
4	4522	4632	4515	5614
4	4249	5129	4252	4745
4	2878	5268	5136	2874
4	3993	3922	3918	3815
4	2166	5762	5510	2252
4	3921	2664	3988	4598
4	3942	1791	1797	1836
4	4862	4524	2550	2548
4	4637	5845	3808	5882
4	4484	1927	1920	1887
4	5266	2044	2870	2042
4	5234	5763	4777	6050
4	4594	5157	5203	5202
4	5078	1744	1800	1789
4	5505	2862	2858	2861
4	4593	3988	4598	3815
4	4796	2847	2843	1737
4	2851	1741	453	452
4	4593	4598	2664	4596
4	4598	5203	5157	3921
4	5729	1800	1744	1743
4	1924	1923	5810	5506
4	4242	4781	4250	4779
4	5673	3949	1835	1884
4	5970	2273	2349	2262
4	4211	6207	5921	4755
4	4594	5202	5201	5157
4	5627	4123	6129	5215
4	5268	494	2040	2042
4	5810	5506	5811	1924
4	5537	5771	5774	4602
4	5305	4552	4554	5871
4	4552	5302	5303	5305
4	5427	1790	1741	1735
4	5429	2856	2853	2852
4	5033	5233	3940	5234
4	5169	2199	2586	2364
4	4550	4647	4589	5395
4	6088	5302	5301	4552
4	5068	1998	1999	1989
4	4616	1671	1672	1666
4	1668	415	416	2045
4	5697	407	1671	406
4	5302	4554	5305	4552
4	5941	2045	2047	2202
4	5623	6226	5963	4559
4	5626	4559	5623	5733
4	5941	5379	5380	2202
4	2041	1666	2043	414
4	4617	2201	2204	2043
4	5922	2000	4476	1991
4	4748	1966	1967	1950
4	4744	1950	1949	1966
4	4206	4208	5162	4471
4	4692	2161	2267	2133
4	5127	1919	1951	1949
4	6052	2346	2345	2252
4	5691	2127	2262	2256
4	5454	2309	5451	2246
4	2122	5691	5269	2042
4	6183	1958	1972	1960
4	4873	5249	4791	4905
4	5055	4133	4123	4136
4	1918	6044	5130	1922
4	5691	2262	2127	2122
4	5617	4909	4914	4853
4	5941	2045	1668	2047
4	2043	2045	1667	4617
4	4020	4985	2426	2422
4	4775	2429	2422	2348
4	6050	2346	2252	2256
4	5249	5733	5625	5623
4	4272	5671	5035	5908
4	3938	1837	1883	1836
4	5908	4272	5675	5238
4	5034	5820	5907	3807
4	5909	1884	1926	1923
4	5564	1741	2855	2851
4	4269	4270	4273	4271
4	4023	5244	4017	4272
4	5243	5244	5238	5242
4	5035	5908	5238	4272
4	4273	4270	5764	4271
4	4489	1886	1883	1924
4	3949	1884	1837	1835
4	4672	5047	5046	5482
4	6178	2258	2308	2342
4	3807	2265	2250	2354
4	4023	5672	5671	5810
4	4898	4797	1841	5428
4	5671	4023	4272	5035
4	4543	1734	2863	2859
4	3949	1837	1884	1883
4	5233	4542	5503	5510
4	5034	4021	3805	3810
4	2047	416	2045	1668
4	5511	3809	5845	5969
4	4131	5010	4125	4128
4	2051	1670	419	418
4	4516	4518	5148	4527
4	3820	1669	1670	2049
4	5941	2200	2202	2047
4	3866	5336	4991	5283
4	4047	4048	4304	4302
4	2049	2047	1669	417
4	4517	4518	4522	4632
4	5380	2202	2285	2286
4	4927	5132	5015	5989
4	5810	4023	4272	5671
4	3820	1675	1669	1674
4	4302	4052	4981	4521
4	5896	1675	5999	3820
4	5240	5104	5225	5230
4	5941	2045	2202	2201
4	1668	2045	4617	1667
4	5262	2503	2548	2367
4	5231	5131	4250	4251
4	5223	5225	5231	4781
4	4617	2201	2043	2045
4	3818	5686	2656	3819
4	5042	5047	5044	5053
4	6011	1942	1910	1909
4	5828	2539	2488	2459
4	3817	4594	4595	6069
4	4596	5203	4598	2664
4	4593	2660	4596	2664
4	5907	2354	2347	2265
4	5882	2053	2052	2169
4	5974	1892	1930	1891
4	5279	5808	5347	5346
4	5237	1841	1892	1891
4	4898	1841	1795	1846
4	6020	2425	2382	2347
4	3922	4598	3815	3993
4	3941	2859	2855	1742
4	3989	5713	3991	3988
4	4109	4111	1956	1970
4	5057	5627	5055	5694
4	5320	5316	3913	4456
4	2661	5713	3989	3988
4	1795	1841	4898	4797
4	5908	1926	1957	1955
4	5974	1929	1930	1892
4	5807	1876	1908	1909
4	5973	1934	1957	1962
4	2049	2051	1670	3821
4	3818	2661	3988	5713
4	5174	3903	3899	3900
4	5336	2436	2499	2363
4	4950	5163	4206	4895
4	2859	4543	6059	3941
4	5162	5165	4896	3902
4	5162	5495	4895	5163
4	6118	6119	6117	2514
4	2850	500	2052	2053
4	4048	4305	4302	4981
4	4862	4859	4860	4011
4	6051	2169	2270	2128
4	5969	2167	2252	2250
4	5907	2354	5820	2347
4	4085	4310	4095	4096
4	5564	2851	2855	2852
4	4009	4256	4014	4015
4	2050	5511	2167	2048
4	4860	4862	4011	4012
4	4085	4310	4097	4087
4	4255	4010	4009	5695
4	4859	4094	4436	4860
4	4862	4010	4011	4012
4	3805	5565	6052	5969
4	4011	4013	4010	4865
4	5065	4040	4691	4512
4	5066	1990	4472	5070
4	5882	2052	2168	2169
4	5066	2007	5067	6125
4	5922	5066	1999	1990
4	5066	2007	6125	2008
4	3949	3938	1837	1883
4	4773	4777	5970	4774
4	2874	5266	5268	5136
4	4640	2847	2851	2848
4	2866	2046	496	2044
4	2847	5427	4640	2851
4	5763	5691	5692	2262
4	5066	6125	1999	2008
4	3825	5376	4768	5947
4	5737	6227	4918	5575
4	4559	5736	5626	5622
4	5735	4560	6108	4570
4	2850	501	500	2053
4	2834	2056	2021	504
4	6092	1799	1849	1798
4	5400	2259	2302	2253
4	4555	4556	4557	6228
4	5736	4559	6167	5622
4	4834	6229	4827	2056
4	5735	5575	4570	6108
4	5736	6167	4570	4918
4	5736	4918	4570	5575
4	4977	4409	6024	5655
4	6024	5973	5310	5238
4	6092	5318	1878	1799
4	5397	2021	2170	2125
4	6024	5392	5655	4409
4	6024	5974	5655	5392
4	5655	4977	5242	6024
4	5748	5242	5655	4977
4	6024	5242	5655	4798
4	5608	6167	5966	6230
4	5608	6167	4567	5966
4	4567	4568	6198	4571
4	4698	2840	2841	2837
4	2846	502	501	2054
4	4563	4567	5966	4564
4	2842	502	2055	503
4	4560	6198	4567	6018
4	6051	2054	2053	2128
4	3949	3938	3942	1837
4	4564	4568	4567	6096
4	6096	2781	4564	4568
4	6137	4571	6198	6222
4	6108	2928	6221	6137
4	6137	2928	6221	6201
4	6137	6138	6231	2918
4	6137	6138	4571	6231
4	5397	2057	2021	2125
4	5496	2253	2214	2125
4	5783	4538	2952	2962
4	5225	4781	4773	5970
4	5317	446	2827	4385
4	5223	5231	5227	4781
4	5231	4251	5241	5239
4	5225	4781	5970	5240
4	5232	5225	5074	5076
4	5267	5269	5232	5266
4	2826	507	506	2058
4	5267	5136	5104	5756
4	2822	2058	2059	507
4	5133	5265	5504	2869
4	5223	5230	5225	5228
4	5230	5755	5240	5104
4	5695	4618	4260	6067
4	4618	4619	5407	4714
4	4618	4619	6067	4004
4	4006	4618	1672	4616
4	4615	4618	1677	1672
4	4615	4618	4619	5407
4	3811	3817	4592	3822
4	2814	2060	2061	509
4	5726	1581	335	334
4	4843	5358	4151	4987
4	4844	4156	4151	4846
4	4385	2823	2819	445
4	3987	5439	3816	5107
4	5727	5726	1580	335
4	5358	4987	3984	5359
4	3960	4966	4965	5720
4	5013	5720	3960	6061
4	4300	2060	508	2059
4	2818	2060	509	508
4	4965	4655	5012	4966
4	5411	2254	2249	2146
4	4116	4115	2062	2063
4	5411	2146	2061	2185
4	4965	4661	4657	4658
4	5601	4117	4294	6017
4	3968	3954	3956	3950
4	5876	1594	1593	1579
4	3950	3956	3961	3958
4	6232	1581	297	1595
4	6233	1608	1594	1609
4	6061	5720	3960	2685
4	6083	3956	3968	6055
4	3950	3961	3962	3958
4	3960	3961	2685	3962
4	4338	4997	4337	4336
4	4888	5867	5284	4030
4	5284	3875	4332	5866
4	4118	2806	2802	2805
4	3913	3917	3927	4456
4	2814	510	509	2061
4	5491	4332	4205	4337
4	5080	5079	5307	335
4	4332	6217	5866	4205
4	4193	5491	4205	4337
4	5493	5492	4337	5491
4	4331	4032	4338	4335
4	4116	2062	2146	2147
4	4338	4332	4331	4336
4	6009	4336	4332	4337
4	5493	4332	4337	6009
4	5491	4332	3875	5866
4	4204	5937	5851	5346
4	5405	2812	2813	2809
4	2806	2063	511	2062
4	5491	4205	4332	5866
4	5942	1680	6003	1685
4	5159	5899	4658	4661
4	422	6013	5942	4759
4	5942	4198	4204	6013
4	5896	4758	4198	5999
4	5735	5849	6109	2916
4	5492	5896	4198	5999
4	5896	5942	1675	1680
4	4116	4115	2063	4113
4	4803	4716	4077	4805
4	4800	4315	5166	4814
4	4801	4840	4839	4314
4	4115	2809	2810	2806
4	4800	4716	4814	5166
4	4808	5886	1663	1662
4	4808	5929	4804	5932
4	4803	4806	4805	3897
4	4800	5887	4314	4807
4	4229	2065	2064	2148
4	3916	4659	5159	5157
4	5530	241	2932	240
4	5731	2380	2384	2305
4	5937	6008	1944	5346
4	5320	4456	3913	6175
4	1852	4759	6008	5937
4	4267	2393	2312	2310
4	6145	243	2912	242
4	4204	5937	4759	6013
4	5937	5938	1852	6013
4	3904	3903	3909	3900
4	6234	2408	2407	2480
4	5841	2323	2403	2326
4	5008	4966	4655	4656
4	3903	5389	4108	3910
4	5502	5175	5390	5485
4	1621	3899	5390	5175
4	3899	3900	1630	5494
4	5175	1620	5390	1621
4	5902	3814	3818	3819
4	3982	5902	6027	4737
4	3982	6027	5902	1692
4	1692	6027	1696	3982
4	4846	4151	3987	3985
4	1695	1696	4737	3982
4	3987	6021	5107	4845
4	5842	2403	2478	2407
4	3985	4846	4151	1690
4	3985	1690	4151	1694
4	3982	1692	5902	6053
4	3987	3982	6053	4846
4	2329	2328	5963	5621
4	5481	5047	5723	6068
4	4508	4510	4511	4509
4	4509	4514	4045	6056
4	5236	4507	3837	4508
4	5236	4045	5716	4507
4	6228	2776	2777	2773
4	2786	2068	517	516
4	3837	4508	4507	4510
4	4043	5339	5340	4041
4	3944	2070	2069	2154
4	6165	2234	2326	2229
4	5734	2915	2925	2926
4	6235	2067	516	515
4	3859	2071	2176	2072
4	4036	4037	4513	5235
4	6236	2779	587	586
4	5980	5981	6237	6231
4	4036	4509	4045	4042
4	3930	4164	4041	4042
4	4402	4403	4836	4749
4	4752	5195	5331	5830
4	4402	5378	4405	3830
4	5829	5331	4752	5391
4	4835	4750	4978	4403
4	4752	4751	5195	5830
4	2188	5966	6164	2068
4	2782	517	2068	2069
4	5962	2130	2180	2232
4	5951	5838	5852	5545
4	4931	5667	4581	5137
4	5119	4183	5121	4849
4	5541	5544	5786	5799
4	4938	5219	5952	5838
4	5679	4817	4816	5678
4	4815	4816	4817	4819
4	2782	517	2069	518
4	4815	4818	4145	4143
4	4468	4512	4472	4470
4	5964	2124	2154	2219
4	5298	2765	2764	2768
4	4530	4467	4527	4052
4	5069	5489	6155	6128
4	5964	2124	2070	2154
4	5922	4472	1990	1991
4	5066	1990	5070	5068
4	5322	5321	6152	5522
4	5522	6154	5148	5152
4	5069	5067	6133	6125
4	5065	5070	4472	4512
4	6200	2752	2753	2749
4	3972	5091	3974	3980
4	5091	2753	5090	2754
4	5091	2754	5090	5501
4	2766	3859	2073	521
4	5966	2069	2188	2154
4	2773	5299	2772	2769
4	3859	521	520	2072
4	5091	6200	2753	2749
4	5091	6199	2749	2750
4	5160	5875	2676	2672
4	5198	5089	5197	5192
4	5087	5088	4341	5004
4	5082	5088	5802	5081
4	4296	5430	5431	4297
4	3945	2124	2176	2071
4	4301	5083	4296	4299
4	4301	4300	6188	5097
4	5083	5080	5086	5081
4	4594	5158	4599	4598
4	3860	2769	2766	2765
4	2794	2066	515	514
4	5896	6003	1679	5571
4	3859	2071	2072	520
4	4659	5315	5710	5853
4	522	521	2766	2073
4	5492	3821	3820	5999
4	5896	3820	1674	1675
4	4205	4193	4204	5491
4	5896	5942	1680	6003
4	5896	4758	5999	1675
4	4705	4254	4711	4704
4	4562	3863	3864	4565
4	4254	4261	6067	4260
4	4009	5695	4254	4255
4	1759	409	427	1681
4	4014	4261	4254	4260
4	2762	2766	2073	522
4	4743	4254	4256	4258
4	4705	4254	6067	4711
4	5319	5703	5464	5758
4	2758	523	2074	2075
4	5404	4911	5814	5961
4	5814	5961	4911	5474
4	4911	5475	3846	4071
4	4911	5960	3846	5475
4	5725	2144	2315	2236
4	4911	3887	5184	5474
4	5474	5961	4911	4526
4	4911	5961	3846	5960
4	2216	2315	4908	2181
4	6238	916	5861	6239
4	6238	4167	5794	6240
4	6241	2595	2610	2596
4	6238	4167	6074	5743
4	5091	6199	6200	2749
4	3977	2183	2075	2181
4	3922	3989	3921	3924
4	6238	6239	4167	6240
4	5608	6180	5596	6165
4	5639	5205	5040	5640
4	2750	525	2118	42
4	2754	524	2075	2076
4	4573	6235	6142	4566
4	4226	4220	4575	4574
4	3977	2315	2183	2181
4	4266	4576	4573	5596
4	4226	4220	5512	4868
4	5512	6235	6142	4573
4	4709	6088	4702	4706
4	5157	5203	5202	5711
4	5652	5255	5259	5261
4	2637	568	2118	526
4	4701	5422	5420	5259
4	4554	4702	6088	5424
4	6088	4706	5652	4702
4	4537	4240	4536	5435
4	3914	3919	3918	3928
4	5357	5434	5467	5433
4	3993	3992	3919	5806
4	4240	4275	4540	4274
4	4558	5221	5250	3882
4	5979	172	173	2923
4	2118	526	568	42
4	4558	3864	3856	4565
4	4562	3863	4565	5925
4	5390	5174	5387	5176
4	4555	4563	6018	4560
4	3901	3906	378	2002
4	2648	537	2192	538
4	4183	5799	5631	4816
4	4818	6242	5138	5219
4	6243	2104	540	539
4	4818	4143	5219	4145
4	5888	5796	5799	5852
4	5631	5796	5132	5138
4	6244	2102	543	2734
4	6244	4318	2191	2102
4	2638	527	2083	528
4	5019	2620	2606	2605
4	6244	2191	6245	2101
4	6244	2730	4605	5607
4	6245	2100	2101	2123
4	6244	2100	2101	6245
4	448	1748	2835	1738
4	5218	5060	5186	4973
4	5588	4265	4268	5600
4	5587	5597	5209	5776
4	4344	5598	6223	5775
4	4932	4572	5595	5596
4	2835	1738	1748	5616
4	5585	6187	4572	4932
4	5586	5662	5585	5659
4	5776	5586	5585	5659
4	5776	6246	5585	5584
4	6247	564	66	2608
4	5514	4576	5595	5585
4	4922	4170	4173	4171
4	5061	4144	4145	5062
4	4171	5113	4172	4169
4	4927	5132	4172	5015
4	5015	5113	5132	4172
4	6093	6092	5616	5385
4	4722	4723	5873	5546
4	5365	5364	5363	4854
4	2738	542	541	2103
4	4580	5026	5017	5018
4	2742	540	2104	541
4	5253	5260	5259	4390
4	5551	5546	5425	4722
4	4578	183	888	887
4	5610	5297	5425	4703
4	5019	5861	2605	2606
4	5294	6190	5297	5296
4	5534	5536	5561	5535
4	5361	4912	5536	5534
4	4184	3013	3014	3003
4	5616	1799	6092	1798
4	5110	2712	2711	2716
4	6248	886	7	184
4	4852	2411	2332	2334
4	5551	5361	5536	5534
4	2835	4900	5616	6249
4	4646	2097	2098	2179
4	4497	4179	5913	4191
4	5577	4185	5121	4819
4	2646	2117	2157	535
4	6250	2743	6251	2739
4	4497	5914	5444	5913
4	4970	2615	2629	2630
4	4497	4426	4179	4187
4	6007	2617	2618	2603
4	4355	5448	4491	4363
4	5448	5447	4491	5386
4	4577	2223	5217	2316
4	5616	6092	6252	1798
4	5442	5278	4192	4191
4	5498	5089	5003	5198
4	5187	5189	4751	5195
4	6253	2604	70	71
4	4709	4708	4393	4706
4	6208	2233	2316	2207
4	5726	5430	5080	5086
4	5189	5198	5188	5400
4	5187	5189	5195	5199
4	2647	2156	536	2157
4	5089	4293	4290	5498
4	5083	5087	4299	4301
4	5753	5285	5287	5894
4	2649	538	2192	2132
4	3898	3905	5286	1623
4	4213	5911	1861	1812
4	3905	5287	3903	5286
4	3905	3906	3912	5288
4	4213	5288	3912	6122
4	5894	5911	1861	4213
4	3815	3922	3918	3988
4	6254	73	2601	2602
4	4593	4592	4596	2660
4	3812	3817	5204	4599
4	6255	919	72	71
4	3991	3981	5713	6070
4	6256	2177	2213	2077
4	2645	2117	534	2077
4	4593	2660	5686	4592
4	2645	534	2117	535
4	3818	5713	3981	5902
4	3811	4593	3818	5686
4	5342	4114	5406	4120
4	4122	4118	2801	2805
4	4113	4117	4114	4115
4	4222	5601	4223	4221
4	5185	2142	2218	2177
4	4113	4119	6257	4116
4	4117	4118	2805	4115
4	5964	2124	2219	2228
4	4113	4121	6257	4119
4	4113	4117	4122	4120
4	5255	6088	5835	5256
4	3966	4101	6205	3964
4	3966	4445	5579	4384
4	3881	4238	4236	4235
4	4622	5579	4384	4102
4	5766	2078	2079	2142
4	4203	4384	4202	4622
4	6258	6218	4443	4620
4	4443	4620	6218	5579
4	5260	5300	5424	5823
4	5304	4002	5836	5835
4	5254	5835	5836	6259
4	5254	5256	5255	5835
4	6005	2601	2615	2616
4	5254	6260	4447	4390
4	5304	4002	4001	5836
4	2644	534	533	2077
4	5304	5254	5836	4001
4	4588	5788	4660	5436
4	5580	6206	5551	5549
4	4056	4282	4060	4059
4	4443	5470	5208	5212
4	5587	5589	5562	5659
4	4701	4554	6185	5424
4	5628	2143	2079	2080
4	4282	5604	5567	4380
4	5567	4380	5604	5568
4	4223	4263	5601	4345
4	2642	2079	532	531
4	4266	4227	5514	4265
4	4345	4344	6223	4223
4	6005	2617	2603	2602
4	4574	4869	5777	4223
4	4121	4118	4229	4218
4	4221	4222	4218	4224
4	4264	4368	4344	4265
4	4264	4263	4227	4345
4	4262	4227	4228	4225
4	2641	2080	531	530
4	5628	2627	2641	2642
4	4574	5514	4266	4227
4	5514	6138	5777	4576
4	4574	4869	5980	5777
4	5514	5585	6246	6201
4	4576	4571	6138	5980
4	4576	6201	5514	6138
4	5790	2183	2083	2591
4	4016	4024	4019	4020
4	2640	2081	530	529
4	5630	2080	2178	2143
4	4016	4017	4023	4021
4	5790	2591	2083	527
4	3810	5034	4021	4023
4	3805	5033	5565	3809
4	5064	179	892	891
4	4554	6185	5305	5871
4	5971	6011	5972	4029
4	5331	5971	5898	4407
4	4138	5515	5688	2143
4	6261	2595	79	3
4	6242	2399	2486	2419
4	5149	2613	2612	2627
4	4709	4393	5772	6087
4	4407	5971	5391	5331
4	5377	4749	5199	4405
4	6235	2790	515	516
4	515	2067	2066	6235
4	6235	2068	6164	6096
4	6262	2755	2756	2752
4	6261	571	2595	3
4	6235	4566	2790	2786
4	2067	6235	2068	2151
4	6235	2786	6096	4566
4	6235	2068	2786	516
4	5092	4233	4234	6262
4	5092	2752	4782	6262
4	2666	2085	2084	560
4	5092	3877	2756	4234
4	5092	4233	3970	3877
4	6071	2209	2194	2119
4	4757	4758	421	420
4	5092	3970	2757	3877
4	5793	6014	2108	431
4	5088	5001	5802	4346
4	5948	1868	1825	1974
4	5084	5083	4341	4350
4	4350	4348	4341	5084
4	6028	6012	5791	6027
4	4351	4340	4383	4397
4	5793	2107	1688	430
4	5553	4339	5809	4397
4	3918	3990	3928	3919
4	6134	561	2084	2119
4	3924	3922	3914	3920
4	5088	4346	4341	5001
4	5467	5784	3965	5468
4	5784	6115	5467	4442
4	4665	4002	5956	5437
4	5987	5579	6218	5991
4	3965	5988	4954	4956
4	3966	6205	4101	5988
4	3989	3924	2085	2666
4	5793	2107	6021	6053
4	4502	6177	2902	2901
4	3985	4149	1695	1694
4	5984	2552	2553	2554
4	4845	2193	2197	2106
4	2654	562	2194	563
4	3966	5988	3965	6205
4	3965	4954	5467	4953
4	6116	5434	5467	5356
4	5793	5791	1689	1693
4	6014	431	563	2108
4	4502	4500	3832	2898
4	4890	5828	6025	5947
4	5987	4445	6181	5579
4	2365	2120	4500	2898
4	5434	5467	5433	5469
4	5357	5467	5434	5356
4	5467	5469	4442	6115
4	4954	3965	5784	5987
4	5357	5356	4952	5467
4	5987	5988	5579	5991
4	6071	2194	2209	2108
4	6014	563	432	2654
4	6054	5454	5840	4441
4	4955	5456	5457	4953
4	2658	562	2119	2194
4	4500	2898	2120	3832
4	3954	5100	5101	5840
4	4944	4943	4955	4953
4	4955	5456	5452	5457
4	2662	561	560	2084
4	3917	4456	4452	3919
4	5118	5840	5754	5100
4	5839	5118	5124	5944
4	4955	6205	5456	4953
4	5734	5737	2926	2925
4	6134	2119	2084	2280
4	4622	5953	5421	5582
4	2666	2085	560	559
4	5202	1752	2667	2663
4	3923	2086	2087	2137
4	5682	4737	4738	1700
4	2670	2085	559	2086
4	4701	4702	5259	5420
4	5422	5420	4622	5421
4	4721	5420	4720	5652
4	5259	4389	4384	4388
4	5420	4388	4384	6197
4	4848	4534	5786	4583
4	4848	4849	4608	4494
4	4152	4851	4847	5796
4	4702	5611	5543	4709
4	2678	557	556	2088
4	3855	3861	3859	3945
4	2674	557	2087	558
4	4557	6019	6263	6264
4	1772	4360	1714	1779
4	5540	5544	5538	5541
4	4534	4582	4584	4583
4	4848	4534	5799	5786
4	5538	4534	4583	5786
4	4155	4156	4151	4756
4	5203	2667	2668	2663
4	5359	6151	4987	5712
4	5359	4988	6151	6139
4	3923	2137	2145	2086
4	4461	4356	4451	4357
4	6058	6084	5706	2671
4	6072	2435	2211	2433
4	5013	5014	5009	2088
4	5160	2668	5203	5706
4	5359	4452	4464	5806
4	5359	4464	4988	6139
4	4013	5169	5696	4010
4	4011	4085	4014	4013
4	4009	4015	4012	4256
4	5711	5203	6058	5706
4	4094	4860	4011	4015
4	5695	4013	407	5696
4	4096	4013	5170	5819
4	5168	5169	4013	4091
4	4013	5819	4260	407
4	4165	4169	4581	4168
4	6058	21	6084	2671
4	5014	2088	2089	2173
4	6175	2376	2375	2299
4	2138	2246	4439	2248
4	5014	2173	2251	2172
4	2736	2732	2737	4607
4	4324	2741	5471	5024
4	4326	4166	4457	4325
4	2682	2089	556	555
4	4317	4166	4321	4328
4	4320	5607	4607	2733
4	6171	6265	1569	1583
4	5160	2677	2672	2676
4	2682	556	2089	2088
4	2736	2737	5471	4607
4	4324	5471	2741	2737
4	5438	2140	2092	2093
4	6208	5217	4328	4329
4	4325	5607	4607	4320
4	3971	3980	3975	4786
4	4130	4128	4125	5010
4	4454	2542	4464	2444
4	4784	5144	3975	5725
4	2686	2089	555	2090
4	6266	6129	6032	4765
4	6266	6126	2943	4765
4	6032	175	6129	6266
4	6058	444	2671	2667
4	6130	6129	6032	175
4	6266	175	6129	2943
4	6032	4765	6126	6266
4	4974	4976	4975	6267
4	4972	6000	5185	4973
4	4971	4972	6000	5766
4	5319	4659	5316	5649
4	4969	5056	4974	4975
4	5332	4462	5335	4991
4	4189	4179	5719	4180
4	5900	1569	347	346
4	5912	5913	4497	4179
4	2694	553	552	2092
4	4426	4177	4179	4181
4	4178	5912	4180	5636
4	4357	4461	4356	4355
4	4179	4181	4187	4426
4	4428	4180	4177	4370
4	6083	2693	2694	2689
4	3968	6055	6060	6083
4	4497	4187	4179	4191
4	6244	2101	2102	2191
4	4873	4791	5249	5619
4	4875	4765	4733	6126
4	5355	5367	5708	5386
4	5437	2187	2095	2096
4	5956	2175	2239	2141
4	5444	4497	4191	5448
4	4667	2702	2698	2697
4	4664	2700	4668	5858
4	4459	5464	4356	4355
4	5319	5464	4453	4419
4	4418	5668	4419	4422
4	4459	5448	4418	4355
4	4192	4191	4363	5448
4	6054	2246	2245	2311
4	2698	2093	552	551
4	4509	4512	4514	4511
4	5437	2221	2235	2187
4	4530	4525	4527	4512
4	4691	4512	4470	5070
4	5065	5067	5069	5066
4	4468	4512	4467	4527
4	5734	5250	4561	5837
4	2702	2093	551	2094
4	6185	5423	2404	2475
4	5956	2095	2175	2094
4	4442	4444	4445	5936
4	4442	4444	5936	6268
4	2706	549	2095	550
4	4578	4326	4168	4457
4	5931	3005	3006	2995
4	5354	5525	5434	4061
4	2710	548	2096	549
4	4646	2215	2131	2179
4	5525	6181	4435	6204
4	6268	5783	4442	4444
4	4912	5364	5361	5365
4	5535	6186	5559	6010
4	5470	6066	5560	6010
4	5536	5658	5535	4913
4	4302	4305	4438	4521
4	4664	2700	2705	2701
4	4417	5447	4415	5465
4	5465	5983	4944	5982
4	4557	4560	6228	6203
4	4646	2097	2179	2131
4	6156	4953	5983	4944
4	4560	6198	6203	5849
4	6269	4953	6156	5457
4	4826	2707	2703	578
4	5465	5982	4944	5759
4	4587	2710	2096	2095
4	2730	4605	2100	6244
4	4944	5982	5983	6156
4	5734	2926	5737	5735
4	6124	5465	6157	5462
4	6270	5650	5703	4359
4	6271	2141	2239	2241
4	6270	343	5703	1572
4	6270	1571	5647	5650
4	6270	5759	5758	5647
4	6270	1571	5759	5647
4	2718	546	2098	547
4	5655	4695	5748	4838
4	6024	5237	5655	5974
4	4727	4641	4700	4725
4	5655	4409	4978	4977
4	5956	2175	2235	2239
4	2718	547	2098	2097
4	5734	5737	2925	5837
4	6156	1586	1600	1585
4	6024	4410	5392	4409
4	5655	4978	4409	5392
4	4114	4117	5342	5371
4	5342	5371	6147	5370
4	6146	6017	6147	5342
4	5529	5406	4120	5342
4	5529	5779	4345	6223
4	5342	5601	5779	6146
4	4263	5342	5601	4345
4	4379	4345	5529	4263
4	4878	2722	2098	2718
4	5529	5779	5342	4345
4	5300	2239	2322	2319
4	4059	5567	4343	5528
4	5996	5021	2632	5020
4	2726	544	2100	545
4	4165	4170	4173	5480
4	4170	5480	6074	2619
4	5020	2618	5023	2632
4	2099	4609	4883	2190
4	2618	5742	5020	5023
4	4165	4171	6209	4173
4	4165	4172	4581	4169
4	5396	2720	2721	2716
4	5697	5696	2041	4010
4	5697	1666	4616	4617
4	5695	6067	4711	4004
4	5189	5198	5400	5199
4	5384	5082	5079	5200
4	5191	5383	6092	5318
4	2217	2190	4609	2123
4	6244	2730	2734	543
4	4555	6228	4557	4560
4	5189	4828	4832	4825
4	4822	4832	4828	4825
4	4832	4831	5558	4751
4	4177	4176	4181	4425
4	4181	6086	4186	6081
4	2100	4609	6245	6244
4	4181	6081	4186	4365
4	4376	5280	4993	4375
4	4177	4178	4429	4426
4	542	2102	2734	543
4	4322	2223	2191	2155
4	4427	4768	5947	4428
4	4181	4430	4424	6086
4	4354	4361	4355	4187
4	6244	543	2102	2101
4	4491	5447	4418	5464
4	5623	4559	5622	6226
4	4952	4945	5983	4953
4	4943	4954	4952	6118
4	4945	6023	5445	4414
4	4952	4945	6023	5445
4	5896	4758	5942	4198
4	4285	5674	5310	4199
4	5217	2316	2223	2155
4	4329	2103	541	2104
4	5571	3998	1678	5573
4	4193	4199	4194	4997
4	2102	4318	542	2734
4	4195	4996	4008	5380
4	3996	4999	4196	5569
4	4003	4195	3996	4008
4	4194	4286	4281	4997
4	3996	4008	4271	3997
4	4003	4195	4008	5380
4	3910	5917	4683	5702
4	3910	3911	5917	5911
4	5107	5439	2211	2193
4	4739	2817	4299	4740
4	5734	6264	2914	2915
4	5999	1670	1675	420
4	4739	2816	4465	5430
4	5368	5876	5369	5371
4	5270	5338	574	3035
4	4739	5369	5430	4465
4	2499	5336	2497	5638
4	5187	5191	5200	5197
4	5270	5337	4653	5229
4	6053	1687	1688	2107
4	2107	429	2106	1687
4	5363	4735	5739	4940
4	5902	3819	4737	3814
4	6039	5739	4734	4735
4	4735	5665	4940	4882
4	4733	4764	5517	4732
4	2025	2026	1652	4718
4	4763	4795	4732	4733
4	4805	5855	1651	5939
4	5363	4735	4940	4882
4	4806	1639	5855	5167
4	5939	2025	2024	1651
4	4735	4885	4884	4886
4	4014	4261	4259	4257
4	5252	4677	1646	2027
4	4806	1639	5167	1643
4	2026	1653	2017	405
4	5915	4719	4724	2212
4	4794	5665	4735	4795
4	5270	575	3035	574
4	4163	1986	1995	1996
4	4473	1981	2035	1980
4	4734	4735	4884	4886
4	4732	4733	4795	4735
4	5266	2869	2873	2870
4	4966	5008	5014	5740
4	5720	4966	4965	5012
4	2367	4005	5263	2287
4	6050	2348	2346	2256
4	5012	2676	5720	2681
4	5327	5326	1953	1946
4	5339	5326	6163	6042
4	4826	4866	3038	4660
4	4690	2036	2133	2037
4	5068	1999	1990	1989
4	2677	5833	5013	5012
4	5321	6152	5522	1821
4	4704	4710	4713	1856
4	5482	4670	4629	6110
4	3935	5479	5374	5477
4	4669	4675	4676	4673
4	4507	2301	2383	2320
4	5499	2263	2184	2135
4	5012	5720	5013	2681
4	4826	5007	577	3038
4	5329	1872	1873	1776
4	3930	4080	5351	6037
4	4501	1976	1986	1977
4	4505	1986	1985	1995
4	6029	5350	3933	4160
4	4080	6037	4164	4162
4	4041	5235	4164	6155
4	4627	5125	6044	4676
4	4043	5339	4041	4039
4	4039	6042	4627	5326
4	6160	6153	484	2900
4	4528	2359	5890	2434
4	4517	4449	4431	4302
4	4626	4671	4629	4628
4	4627	4676	6042	4673
4	4692	4690	2133	2267
4	4510	2260	2301	2320
4	4608	4323	4457	4458
4	4158	1987	1997	1988
4	5352	4046	6029	1802
4	4152	4458	4153	4323
4	4848	4582	4534	4583
4	4692	2161	2133	2036
4	4504	2895	1747	1794
4	6037	5526	5350	1866
4	4690	2134	2037	2133
4	4690	2133	2267	2260
4	4848	5799	4534	4852
4	4848	4582	4608	4850
4	4152	4850	4608	4154
4	4848	4494	4582	4583
4	1665	1661	4295	4315
4	3887	5475	4071	4839
4	3919	4452	3993	5806
4	5027	2015	2113	2112
4	3984	3993	5806	3992
4	5027	388	4677	2015
4	5030	2113	2206	2112
4	5402	1863	1896	5985
4	5030	5920	2112	5921
4	4677	1646	2027	388
4	5939	2024	2158	2115
4	4988	4990	4989	4991
4	4682	4686	4685	4684
4	3816	3815	3993	3992
4	3983	3986	3812	4151
4	3984	5806	3993	4452
4	5958	5915	2289	2206
4	4719	2421	2126	2212
4	4535	2432	2494	2420
4	3987	6053	3982	3981
4	4104	407	1653	1657
4	4718	2025	4813	1652
4	4103	1653	1652	1657
4	5341	5340	5326	1913
4	4478	2162	2121	2033
4	4550	5301	5436	4586
4	4474	2034	1982	2033
4	5066	5068	1998	1999
4	4551	4552	5436	4550
4	4709	4552	4547	4554
4	4826	578	3038	577
4	4552	6088	5772	5301
4	5771	5609	4600	4547
4	4014	4261	4088	4259
4	2355	4530	2255	2272
4	4469	2271	2356	2255
4	4472	4473	1990	1991
4	4479	2271	2255	2121
4	4479	2121	2162	2271
4	4038	4959	4037	4916
4	2032	5164	1983	4478
4	4393	5772	5609	5771
4	5815	2362	2498	2544
4	5460	1959	1958	1897
4	4964	5458	1938	1959
4	5432	1965	1958	1959
4	5395	5772	5609	4391
4	5788	6087	6158	5772
4	4555	4562	4558	4565
4	2106	1687	428	1686
4	4717	2212	2126	2196
4	6227	5737	5626	5414
4	5626	5414	5737	5733
4	5340	1845	6163	1880
4	1750	2891	5352	2887
4	4064	2892	2893	2889
4	4511	2267	2301	2260
4	5918	2815	6232	298
4	5414	4886	5415	5624
4	5733	5736	5626	4559
4	4560	6198	5849	6108
4	5268	2165	2153	2040
4	4704	1932	4710	1856
4	5946	2890	2886	2889
4	5756	2165	2266	2153
4	5240	2273	2266	2298
4	4561	5733	5736	5737
4	5623	5926	5249	5925
4	4742	4747	4748	4744
4	6057	2431	2353	2379
4	5045	2881	2877	2880
4	5054	5043	5135	5045
4	6195	4503	1978	2038
4	4163	1986	4505	1995
4	4083	5881	4504	5687
4	6162	2038	2134	2279
4	6162	2134	2357	2279
4	4510	2320	2357	2260
4	2898	2120	489	488
4	5918	5431	5726	5430
4	4663	1994	6153	2003
4	5623	5622	5621	6226
4	4269	4285	4286	4273
4	4338	5903	4281	4997
4	4986	4281	4270	4017
4	3834	2279	2278	2120
4	5918	25	298	334
4	5820	4017	4021	5244
4	5820	6170	4017	6272
4	5729	5730	1843	1842
4	6170	6174	5820	4021
4	4017	5311	5312	5244
4	5427	5564	6047	4799
4	2851	1735	2847	5427
4	5427	4796	4797	1735
4	5427	1793	4797	6046
4	4774	4775	2348	2429
4	5375	1801	6098	1840
4	5757	2020	2160	2165
4	5427	6047	1790	4799
4	5427	1735	2847	4796
4	5427	1793	6046	1790
4	4469	2271	2359	2356
4	4799	4639	3948	4792
4	5918	334	5726	5431
4	4052	4528	4521	4529
4	5615	2543	2549	2550
4	4528	2356	2432	2355
4	4981	4052	4053	4469
4	4303	5152	4047	4052
4	4981	5893	4521	5890
4	4438	4521	5893	6220
4	4245	4249	4253	4252
4	5131	5126	4246	5125
4	5131	5223	5228	5128
4	2870	2044	496	495
4	5231	4781	5225	5240
4	5128	5131	5130	5226
4	4293	5192	5089	4290
4	2862	2048	497	2046
4	5489	5490	6113	5067
4	5510	2167	2166	2252
4	5489	6113	5490	4162
4	4159	5489	4162	4164
4	5489	5521	5235	5065
4	5691	2046	2044	2127
4	4158	4081	4662	4157
4	4484	4483	5282	1920
4	5065	4159	4040	5235
4	5521	5069	5489	6155
4	4252	4012	4015	4256
4	4728	4637	4644	5472
4	4253	4250	5131	4251
4	4728	2852	2849	2848
4	4742	4252	4743	4744
4	2858	498	2048	2050
4	4258	5432	4015	4742
4	5918	25	2819	2815
4	5102	6062	3950	3953
4	3955	6078	6107	3925
4	2854	499	2050	2052
4	3955	6107	6078	6111
4	3955	6062	6078	3959
4	3954	3955	5103	3956
4	3955	5100	6111	5102
4	4636	2848	2845	2844
4	3955	3959	6078	3925
4	5378	5197	5199	5005
4	2846	2054	501	2053
4	5187	5197	5199	5195
4	5187	4828	5190	5193
4	5198	5188	5400	5496
4	5400	5199	5805	4749
4	4749	4836	5377	5399
4	4642	2846	4699	2845
4	5882	2169	2265	2270
4	5845	2052	2050	2168
4	4696	2055	2054	2129
4	6051	2053	2169	2128
4	4405	5376	4406	4768
4	3823	3824	4372	4373
4	5828	5376	4406	5377
4	5198	5805	5006	5003
4	4018	4023	5810	4026
4	5903	4336	4338	5312
4	5594	2056	2055	2171
4	4858	4019	4485	4025
4	4696	2129	2128	2261
4	5309	4977	4410	6024
4	6229	2171	2170	2056
4	5935	1910	1942	1943
4	4297	2816	2820	2817
4	6229	2259	2253	2170
4	2170	5397	6229	2056
4	5309	4032	4977	4335
4	4409	4410	4411	4977
4	3808	2250	5969	3807
4	6229	2170	2171	2259
4	5594	2055	2129	2171
4	5309	6024	5310	5238
4	6252	1798	1849	1848
4	1723	6159	1827	1773
4	5377	2302	2387	2424
4	1739	447	5385	2827
4	5907	5242	5820	5034
4	6159	1776	1724	1723
4	5242	5749	5748	5247
4	5805	2303	2351	2214
4	4977	5242	6020	5749
4	5439	2361	2358	2211
4	5242	3806	5247	5243
4	4561	5733	5737	5837
4	3818	2656	2661	2657
4	4567	6018	6198	4568
4	4560	4570	6198	6108
4	3915	2137	2257	2268
4	5008	2257	2137	2172
4	5707	5386	5367	4490
4	3921	2669	2665	2664
4	6198	6108	6222	5849
4	4651	5821	3868	2198
4	6086	1876	1829	1779
4	5192	5188	5308	5193
4	5493	3821	5999	6094
4	5040	1822	5204	5037
4	6172	6273	6077	1582
4	5708	1574	5367	1588
4	4651	2197	2282	2105
4	4655	4661	5012	5833
4	4567	4571	6198	4570
4	6137	6222	6198	6108
4	6137	6198	4570	6108
4	4569	4871	4575	5976
4	4422	2450	2376	2386
4	6078	3042	230	3032
4	6265	1569	1583	1568
4	4566	2786	2789	2790
4	6060	2089	2090	2138
4	4439	2309	2248	2246
4	3959	2688	2684	2683
4	4571	6138	5980	6231
4	6137	4570	6198	4571
4	4571	6231	5980	6274
4	4571	6274	5976	6224
4	5883	4541	5729	5730
4	6171	1569	1584	1583
4	5077	5135	5074	5075
4	6275	3012	5868	6269
4	4440	2248	2173	2138
4	5071	5078	5077	5075
4	6172	6273	1596	6062
4	5076	5246	5228	5077
4	2667	443	2663	1752
4	5650	344	1571	345
4	4651	5108	2282	2197
4	2686	2090	555	554
4	5074	5076	5225	5077
4	5839	6033	5754	5456
4	5012	2676	5899	5720
4	6165	6164	2229	6230
4	5014	2088	2173	2172
4	4440	2089	2138	2173
4	4541	4543	5729	5073
4	6102	2246	2139	2245
4	6060	2139	2138	2090
4	5078	5076	5730	5071
4	5225	5077	5076	5228
4	4541	4542	5504	5233
4	6165	6230	2326	5841
4	5701	2306	2304	2251
4	6165	6142	2234	6164
4	6102	2174	2139	2091
4	5308	5306	5193	5382
4	5381	5308	5193	5382
4	4292	5308	2824	5306
4	5381	2829	5190	5308
4	4830	3021	4448	4175
4	5141	2693	2692	2697
4	2714	2096	548	2097
4	5608	4566	6142	6164
4	6271	2141	2140	2093
4	5190	5308	2829	6225
4	5381	5308	5382	2828
4	5381	2829	5308	2828
4	5190	5308	5188	5193
4	5608	6164	6165	6230
4	5754	5101	5456	6035
4	4966	4968	5740	4439
4	5857	4174	5854	3030
4	2714	548	547	2097
4	5270	3036	4653	3035
4	5994	2098	2099	2189
4	3957	3960	5720	3962
4	4631	2096	2097	2131
4	4966	4440	5014	5013
4	6165	5832	6166	6230
4	3968	6061	3960	3961
4	5747	3025	3015	3014
4	3968	4439	4440	4441
4	5281	5347	5867	4430
4	3872	4889	3875	3871
4	4858	4985	4780	5690
4	4195	4996	4997	4194
4	4858	5112	4982	4984
4	4883	2238	2189	2190
4	5724	2236	2227	2182
4	3995	4004	4711	4619
4	5596	6179	6165	6180
4	4003	4008	4007	5380
4	3945	2124	2228	2176
4	4006	4005	4004	4616
4	421	4156	4155	4756
4	4795	4733	4765	4736
4	3995	4613	4615	3998
4	3944	3946	3945	5964
4	4230	2924	2914	2913
4	3869	4198	5492	5491
4	4984	4857	5380	4007
4	5298	2765	2768	2769
4	4842	1644	4806	1643
4	5214	890	905	904
4	1647	3886	3897	4842
4	5576	5617	5620	5532
4	4096	4088	4013	5819
4	5739	4939	4770	4772
4	5688	2143	2142	2079
4	4842	3897	1647	1643
4	4071	3891	3884	3887
4	4904	2335	2216	2232
4	4905	2331	2333	2225
4	3897	4804	4842	4801
4	4804	4842	5945	1644
4	3884	3886	4842	3897
4	3973	2144	2183	2315
4	5924	5722	5813	5387
4	5576	6234	5532	2480
4	5501	2076	2118	525
4	6030	896	174	897
4	1635	2030	1634	5722
4	5924	384	2013	2030
4	5924	385	2013	384
4	5924	5483	1634	5387
4	5576	2409	5618	5621
4	3899	1628	5177	1629
4	3899	1628	5390	5177
4	3903	3910	4108	5287
4	3907	3903	3905	5287
4	5502	5390	1627	5483
4	5390	5485	5176	5483
4	5622	6234	5576	6226
4	5175	1621	5752	1620
4	5502	5175	5752	1620
4	4843	4987	5107	5712
4	4908	2315	2216	2236
4	5793	6071	3981	6021
4	6266	175	2943	174
4	6276	2610	5440	6241
4	3987	5439	5107	6021
4	3932	5481	5050	5478
4	4159	5490	4691	4158
4	4509	4508	4040	4511
4	4879	2722	2726	2099
4	5663	4881	5664	5542
4	4532	2332	2238	2217
4	3836	3840	3839	4689
4	4688	4159	4158	4157
4	5065	4159	4691	4040
4	4605	2730	2726	2725
4	4609	2100	2123	2190
4	4634	4635	2714	2713
4	5865	5816	2977	2976
4	5994	2189	2238	2237
4	4674	5482	3929	4670
4	5339	4673	4039	6042
4	4511	4508	4040	4688
4	3836	3840	4689	4510
4	4028	4407	5898	5972
4	5576	6234	2408	6226
4	4971	2629	2615	2614
4	4749	5199	5805	5377
4	5144	2183	2144	2083
4	4403	6178	5399	4749
4	4837	6178	5399	4403
4	4607	5761	4493	4326
4	4325	4326	4493	4457
4	4458	4166	4321	4323
4	6264	2904	2915	2905
4	2485	4769	4770	2481
4	4317	4325	4166	4326
4	5155	5011	4235	897
4	6185	2476	2404	2405
4	4326	4324	4607	5471
4	5979	173	2933	2923
4	5800	2081	2182	2178
4	4457	4182	4494	4849
4	5180	2337	2227	2236
4	4457	4168	5632	4849
4	4608	4457	4323	4325
4	4457	4494	4493	4325
4	2637	527	526	2118
4	5115	5300	4001	5304
4	5836	4447	4001	5254
4	5304	4001	5115	4099
4	5145	2182	2082	2144
4	3992	5712	5439	2211
4	6071	2658	2194	2654
4	5115	5114	5116	5124
4	6141	6072	5806	2433
4	4000	4002	4001	5304
4	5118	5840	6054	5944
4	5107	2197	2193	2211
4	5108	2360	2282	2197
4	4202	6136	6197	5767
4	4845	4651	2106	2197
4	4845	2106	1686	1687
4	2107	1687	4845	6053
4	4722	5872	4720	6197
4	5096	2350	2274	2263
4	6188	2274	2136	2184
4	4300	2184	2136	2059
4	4300	2136	2060	2059
4	4002	5140	4668	4001
4	5117	4001	5123	3999
4	5118	4668	5117	5142
4	5117	5956	4002	3999
4	4078	4505	4501	4502
4	4539	4538	239	2952
4	4501	4503	1977	1986
4	4501	6049	4502	6177
4	4501	4505	4163	1986
4	5411	2146	2062	2061
4	4501	1985	6177	4505
4	4352	1579	1593	1578
4	6277	2811	6278	2807
4	5223	5225	5224	5076
4	5762	5233	5763	5691
4	4229	2148	2064	2186
4	2860	4544	5504	3941
4	3937	3938	3939	3942
4	5731	2380	2305	2295
4	5504	2860	4543	2864
4	6279	2521	2517	2467
4	3960	3961	6061	2685
4	3947	3940	4489	4026
4	5438	2174	2140	2243
4	3968	6083	6060	3961
4	3950	3968	3960	3961
4	3954	5100	5840	5142
4	6055	6101	3956	5142
4	6054	2311	5944	5454
4	3950	3952	3960	3967
4	5452	4439	3967	3968
4	6055	6083	3956	6101
4	6102	6055	6060	4441
4	6067	4714	4618	4261
4	4254	4257	4714	4261
4	5342	6146	5769	6147
4	4705	4711	3997	4710
4	4229	2148	2186	2244
4	5662	2948	2949	2938
4	5695	407	5697	5696
4	4720	6022	6197	2988
4	4664	2705	4666	2701
4	5420	6197	6022	4388
4	5102	231	6062	1597
4	4668	2701	2697	2696
4	5695	5697	4010	5696
4	4705	6067	4619	4711
4	4254	4256	4255	4711
4	2710	2095	549	2096
4	5115	2314	2319	2397
4	3988	4598	3815	3922
4	5695	407	4013	4260
4	5610	5546	4721	5425
4	6226	2407	2408	2328
4	4549	5297	4703	5593
4	4701	5423	5424	6185
4	4701	4702	4554	5424
4	5549	5580	5560	5551
4	4545	4554	4552	5871
4	5576	2479	2409	2408
4	4702	6088	5424	5255
4	2066	6235	2790	515
4	4703	5297	6190	5593
4	5058	5057	5063	5183
4	4969	4975	6005	5213
4	4123	5694	4974	5055
4	4974	4975	5056	907
4	5056	4975	906	907
4	5621	2408	2329	2328
4	6228	2773	2772	2776
4	5056	5213	892	906
4	3852	3850	4310	4498
4	3850	4092	4097	4087
4	4310	4087	4887	5402
4	4154	2220	4850	2123
4	6245	2123	2191	2220
4	6192	2207	2192	2233
4	4753	4432	3850	4821
4	6197	2988	6022	2989
4	3848	3843	3844	4755
4	4207	4821	4306	4212
4	4580	5019	4167	5480
4	4821	3849	4207	4434
4	5217	2103	2207	2155
4	2608	5026	2607	6280
4	6007	6073	5214	6006
4	5280	5348	4762	5346
4	5280	5279	5346	4762
4	4757	4150	4762	4756
4	4110	1925	1970	1929
4	4757	3867	4760	3869
4	4762	4759	6008	4150
4	5506	1923	1955	1936
4	4762	5348	6008	5346
4	4346	1724	336	337
4	6181	4284	4435	6204
4	4714	4254	6067	4705
4	4110	1970	1925	1943
4	5805	2253	2302	2303
4	5397	2125	2170	2253
4	6281	2978	6136	5872
4	5381	2833	2829	2832
4	4366	2427	2489	2423
4	5805	2303	2214	2253
4	5636	2582	2588	2584
4	5525	5434	6116	5356
4	5357	4953	4952	5983
4	5983	5446	5445	5355
4	5897	1715	1829	1766
4	6116	5356	6118	6182
4	6197	2989	4388	4200
4	6242	4809	4810	2473
4	5654	5653	2458	2489
4	4952	4951	4943	6118
4	5356	5276	5274	5445
4	3882	5977	5250	4230
4	4905	4873	5249	4903
4	5006	2424	2427	2303
4	3856	3882	3857	3864
4	5974	5237	5656	1892
4	3821	2051	2203	2049
4	6242	5952	2530	2486
4	2831	5616	6249	2835
4	5499	4289	5497	2058
4	5821	2360	2436	2282
4	3882	4230	3883	4231
4	5221	3864	5222	3882
4	6070	2209	2119	2280
4	6134	2280	2084	2152
4	5221	5249	4876	4903
4	4558	4565	4562	3864
4	3856	3883	3882	5250
4	5538	5930	5541	5786
4	6021	2193	2107	2209
4	5958	2505	2206	2289
4	5404	5961	4107	5702
4	6282	6283	583	2911
4	4818	5138	4145	5219
4	5915	2289	2208	2212
4	4753	2371	2446	2498
4	4715	4073	4076	4075
4	5029	2421	2208	2116
4	6282	6202	2791	2795
4	6282	584	2911	583
4	4719	2212	2208	2421
4	4815	5137	4818	4816
4	5915	2289	2206	2208
4	4468	4476	4466	4472
4	4466	4470	4473	6120
4	5870	2371	4753	2498
4	3847	3910	4683	5702
4	5921	2291	2505	2372
4	4468	4053	4052	4469
4	5458	1947	1917	1896
4	4717	2126	2026	2196
4	3957	3952	6171	5899
4	4052	4467	4469	4528
4	5495	2114	2195	2018
4	5164	1984	2032	1983
4	5463	4419	5320	4420
4	4207	4650	4649	4210
4	4947	2111	5416	5813
4	4468	4527	5152	5521
4	4203	4200	4384	4445
4	5917	5574	5702	1905
4	4980	2001	2002	1992
4	4202	5420	4622	4384
4	5164	2032	2195	2162
4	3966	5579	5988	4102
4	4949	2505	2373	2372
4	4526	1860	1763	1973
4	4821	5891	5892	5715
4	4949	2447	2373	2205
4	4965	5012	5899	5720
4	5688	2226	2142	2143
4	3966	3965	5987	5784
4	5784	6181	4445	4442
4	5020	2618	2632	2633
4	5422	4390	5260	4102
4	5259	4390	4384	4389
4	5319	4659	5463	5320
4	5453	5463	4421	4967
4	4657	4968	5463	4656
4	5453	5701	5463	4968
4	2646	535	2157	536
4	6255	6254	72	920
4	5463	5701	4421	4420
4	5463	4420	4421	4419
4	4983	6001	4704	5139
4	5049	2883	2884	2880
4	6171	1584	6123	3953
4	5172	5884	5324	5323
4	5463	4968	4420	4656
4	4931	4145	6076	5578
4	4469	5890	4528	2359
4	4170	4922	4921	4923
4	4167	5480	5019	6074
4	5119	4581	4169	4168
4	5053	2884	2885	2881
4	5137	5121	4183	5578
4	6074	5743	4167	4923
4	6075	5743	4923	6073
4	4850	2217	2123	2220
4	3826	4339	5004	5002
4	5612	3034	5603	3033
4	3826	5004	5005	5003
4	5962	2130	2232	2216
4	6150	177	2963	176
4	4030	4112	5866	4410
4	4338	4332	4337	6217
4	6217	4997	4337	4338
4	4338	4032	4332	6217
4	3945	2228	2225	2176
4	5284	5866	4332	4032
4	4032	4031	4411	5826
4	4020	2426	4985	6170
4	4336	2439	2502	2457
4	4032	4411	4335	5826
4	4994	5343	5948	5348
4	3830	3829	5331	3828
4	6082	1819	6112	5330
4	5378	5195	5199	5197
4	5382	2827	2831	2828
4	3828	5001	5197	5005
4	5557	1889	1848	1849
4	4777	2262	2348	2256
4	3830	5331	5195	3828
4	4780	4774	5690	4775
4	5004	5746	4401	5098
4	4482	1924	1927	1886
4	5087	5098	5004	4401
4	3827	4372	3829	5330
4	6174	2345	2430	2354
4	5811	5506	1936	1924
4	3830	4752	5331	4407
4	4774	2429	2349	2390
4	3952	5899	4967	6171
4	4336	2465	2370	2439
4	5088	5001	4341	5004
4	4332	4334	6009	3874
4	6080	2366	2288	2203
4	5571	3998	3996	5569
4	5001	5329	5197	5802
4	3821	2203	2200	2049
4	5083	5080	4296	5086
4	3995	3998	4619	3997
4	5168	406	5170	5169
4	5556	5834	4340	5398
4	3869	6094	3868	3870
4	6025	2539	2459	2513
4	6272	2465	2590	2370
4	3827	6159	5001	4347
4	5750	2381	2308	2296
4	5392	1929	1892	1890
4	5974	1892	5392	1929
4	4034	5826	5827	6161
4	6020	2382	2296	2347
4	4642	2850	2846	2849
4	5399	4403	4836	4837
4	4466	4468	4472	4470
4	5392	1929	1890	1925
4	4832	6093	4833	4828
4	2381	6176	2457	2382
4	4466	4050	4476	4053
4	4334	2366	2501	2502
4	2381	6176	2382	2296
4	4842	5945	1644	1648
4	5501	2183	2075	3977
4	4208	4049	4210	3912
4	2071	3945	2124	2070
4	6002	2216	2181	2130
4	1586	1572	5759	5709
4	4210	4214	4049	5877
4	4708	5611	5774	2996
4	4054	5322	6132	5923
4	4591	2699	2703	2704
4	4219	2240	2149	2242
4	6019	2767	2771	2768
4	4210	4049	4304	5877
4	5966	2154	2229	2219
4	5621	2409	2329	2408
4	1831	1851	1896	5985
4	3901	4049	4896	3912
4	4054	4055	5878	6132
4	4054	5878	4049	6041
4	4077	4813	4716	5251
4	5473	4895	4950	4948
4	6261	2747	6284	5831
4	4070	2278	2320	2164
4	5881	2895	2899	2896
4	4805	5745	5252	5939
4	4715	4077	4716	5251
4	4662	6113	1996	2005
4	4163	1986	1996	1987
4	5130	6045	1893	1922
4	3889	3892	5029	4719
4	5817	4312	4716	4718
4	4417	5462	5319	5464
4	5798	1579	337	336
4	5897	5556	4190	5804
4	4830	3022	4448	3021
4	5446	4423	5449	5444
4	5843	2541	2579	2540
4	1911	5331	5829	5391
4	4767	5947	5843	4367
4	5197	5329	5384	5802
4	4313	5000	5985	1831
4	4842	4801	4804	5945
4	5496	2253	5400	5805
4	6261	927	3	79
4	5154	4219	4218	4220
4	5498	4293	4290	5499
4	4076	3891	3889	3892
4	4803	3891	4077	4716
4	3891	4716	4800	5166
4	4120	5531	6285	5406
4	5809	2458	2510	2452
4	4804	5932	5929	5934
4	5746	2423	2458	2385
4	5635	2385	2350	2423
4	4869	5780	5601	5602
4	5601	5602	5780	6144
4	2060	4298	4740	5797
4	5098	2297	2274	2350
4	5797	2254	2185	2269
4	5991	6089	4102	5579
4	4445	4444	4443	4201
4	5987	4954	6116	5784
4	3966	4101	4102	5988
4	6286	1601	5993	5982
4	6286	5993	1601	1602
4	6286	5993	5708	5982
4	5708	5523	5993	6286
4	6286	5523	1602	5524
4	3925	2687	2691	2692
4	5143	2695	2700	2696
4	6063	2996	5931	5611
4	6156	1585	1600	1599
4	6063	4788	5542	2985
4	6063	5931	2995	5542
4	5454	2246	2311	2309
4	5451	2389	2388	2309
4	6063	2995	5931	2996
4	6203	2779	2776	2775
4	5514	4227	4344	4265
4	6287	586	585	2783
4	5529	5342	4120	4263
4	5768	5598	6223	4344
4	6164	2234	2229	2188
4	2067	6235	2151	2150
4	5783	4539	4060	4283
4	6142	2151	2150	2222
4	5529	5342	5779	5770
4	5529	5768	4343	5530
4	5776	5584	5775	6246
4	5599	4343	4283	5209
4	6053	1688	1687	1692
4	6261	6284	117	927
4	5500	4283	5599	4343
4	5901	1570	1569	346
4	3990	2358	2280	2152
4	4178	5636	5843	5637
4	1807	1875	5685	6069
4	4379	5567	4264	4381
4	6257	2186	2064	2063
4	4379	4119	4120	5531
4	6165	5832	5596	6166
4	4229	4218	4118	2064
4	5349	2559	2556	5276
4	5595	6114	6179	5600
4	4378	2249	2305	2307
4	5600	6180	4266	5513
4	5596	4932	4572	6166
4	5734	2926	2916	2915
4	6222	2917	2918	2907
4	6274	2784	2787	2788
4	4643	4697	5247	4695
4	4643	4727	5655	4798
4	6164	2188	2151	2234
4	3806	4643	4793	4637
4	5513	2222	2240	2321
4	5512	2150	2240	2222
4	4695	4727	5655	4643
4	4643	5882	4637	3808
4	4919	6187	2937	4933
4	6261	6288	571	2747
4	6164	2068	2151	2188
4	4391	3027	3028	3017
4	3806	3808	4643	4637
4	5259	5261	4389	6022
4	5080	5727	5726	5086
4	5727	1580	5726	5086
4	5651	3008	5256	3009
4	5305	2404	2402	2324
4	5727	1580	5086	1579
4	5871	2325	2405	2404
4	5727	5081	5084	5086
4	5081	1768	5079	5727
4	2975	5816	5542	4881
4	6261	3	117	571
4	5850	2484	2413	2411
4	3876	3881	3883	3878
4	3856	6019	4557	4556
4	5855	1655	5929	4805
4	4104	408	407	1657
4	5817	1660	5166	5818
4	5755	5240	2266	2294
4	5241	4779	2298	2377
4	5133	2873	2869	2872
4	4779	2390	2349	2298
4	5128	5130	5245	5246
4	3883	6019	5862	6263
4	4779	2298	2377	2390
4	3883	5250	6263	4230
4	3971	3980	4783	4782
4	4233	6262	4783	4232
4	3881	4236	4234	4232
4	4149	5704	438	1712
4	4507	6056	5716	2383
4	5135	5106	5136	2877
4	5461	1959	5885	1965
4	5092	4233	4782	3970
4	3881	4230	3883	4237
4	4268	2240	2242	2318
4	4238	4235	3881	4231
4	5591	2466	2468	2395
4	6289	2474	2403	2401
4	4339	4401	5746	4397
4	4228	2312	2242	2244
4	5001	4347	4346	4341
4	5576	2479	5618	2409
4	4396	5095	5097	5096
4	4399	5370	4398	5531
4	6238	917	902	903
4	4399	4383	4351	5606
4	4397	4400	4394	4396
4	6290	2418	2406	2343
4	5088	5081	4341	4346
4	4401	5746	4397	5098
4	6192	2648	6209	2156
4	4954	6279	6119	4956
4	4851	2223	2339	2336
4	3965	4956	4953	6205
4	4954	6279	4956	5988
4	6117	6119	4954	6279
4	5715	2290	2292	2210
4	4091	2546	2500	2364
4	1811	1856	4704	4713
4	5961	1973	1763	1762
4	5892	2290	2446	2371
4	5893	2445	5870	2448
4	4471	4475	4896	5165
4	5354	5357	5355	5523
4	5987	4445	5784	6181
4	5987	4954	5988	5991
4	5892	2371	2292	2290
4	5495	2210	2195	2114
4	4684	1916	5574	1971
4	5715	2292	2281	2210
4	4239	4893	5274	5344
4	4063	4062	4057	4891
4	4961	1904	5916	1862
4	5473	2205	2109	2447
4	5523	5357	5433	5354
4	4056	4063	4058	4061
4	5482	6194	6068	5248
4	4806	1654	5929	5855
4	5716	2320	2383	2275
4	6068	2275	2353	2264
4	5352	5477	4046	1804
4	4535	2355	2432	2420
4	4916	6043	5327	5326
4	4383	4340	4892	4397
4	4692	2036	4690	5801
4	4056	4058	4059	4060
4	6056	2379	2383	2301
4	4630	6169	4535	5614
4	6128	6113	5526	1728
4	5434	5467	5469	4442
4	6168	5890	2292	5715
4	4056	4060	4282	4435
4	5434	5433	4537	4060
4	5845	2168	2167	2250
4	4188	5398	5366	5773
4	1854	4713	5572	1901
4	5908	1926	1955	1923
4	5750	6178	5785	2308
4	6174	2345	2426	2430
4	5758	5709	4491	5447
4	4286	5905	5714	5506
4	5195	5384	5329	5830
4	4636	2849	2845	2848
4	5442	5450	5446	5445
4	5820	2425	2347	2354
4	4796	2843	2847	2844
4	5903	2370	2590	2443
4	5443	5277	5275	5442
4	4482	1935	1927	1924
4	4285	5905	5675	5674
4	4177	4178	4180	4428
4	5472	2858	2854	2857
4	4020	2346	2422	2426
4	5078	1843	5729	5730
4	4792	5427	4797	6046
4	4192	4187	4186	4490
4	5749	2347	2296	2270
4	6051	2128	2270	2261
4	4833	2840	2837	2836
4	4696	2129	2261	2258
4	4180	6143	5912	4179
4	5656	1890	1892	1846
4	3807	2354	2250	2345
4	5442	4191	5448	5444
4	4728	2852	2853	2849
4	4608	4457	4325	4494
4	4492	4495	4582	4494
4	4604	4883	4609	4582
4	5498	2351	2263	2214
4	2488	5947	5376	2492
4	4883	4532	4582	4604
4	4604	4879	4609	4883
4	419	6094	5999	1670
4	6015	5569	1809	1751
4	5937	1937	1852	1898
4	5826	4333	2513	2456
4	1902	1857	5905	1853
4	4618	1672	1671	1677
4	4152	4153	4458	4851
4	6291	6090	5674	1962
4	4713	1856	1901	1854
4	5904	2370	2288	2439
4	6272	5820	5311	4017
4	4272	5671	5675	5506
4	4534	4582	4850	4532
4	5903	2443	2368	2370
4	5904	2370	2285	2288
4	5538	4583	4601	6292
4	4420	2299	2304	2376
4	4601	5747	4583	4584
4	3915	2145	2137	2268
4	6259	3020	4174	4175
4	5538	4533	4584	4534
4	5871	2221	2325	2324
4	5859	2213	2317	2344
4	4182	4184	4494	4849
4	4582	4583	4494	4495
4	4583	5747	4495	4584
4	5747	4494	4583	4495
4	6197	2989	2978	2988
4	5295	5552	2575	2574
4	5519	2340	2338	2416
4	5538	4600	5537	4601
4	4583	5787	5786	4185
4	4850	2334	2217	2220
4	5998	4288	2226	5515
4	4975	4976	6254	6267
4	4855	2955	2956	2945
4	5063	178	5064	4144
4	4975	920	6254	6006
4	4975	920	6006	906
4	5058	5056	5063	5057
4	5994	2179	2189	2237
4	4975	5213	906	6006
4	2411	2412	4852	5888
4	4783	6276	4782	3980
4	4785	4783	6241	6213
4	4783	912	5155	4232
4	5098	2385	2297	2350
4	4783	4233	4782	6262
4	5797	2060	2185	2061
4	4579	6209	4165	4328
4	2619	4173	5020	4170
4	4922	4170	4581	4923
4	4612	2238	2330	2237
4	5119	4458	4849	4168
4	4152	4847	4848	4852
4	4847	5113	4169	5132
4	5113	4851	4847	4458
4	4603	3025	3026	3015
4	6040	4707	2987	2997
4	4393	4602	4392	3016
4	4171	4173	5996	6209
4	4165	4581	4170	4167
4	4326	6210	6211	6212
4	5748	5247	4697	4695
4	6139	2496	2436	2360
4	4463	2594	2496	2444
4	4359	4354	4364	4358
4	5109	1686	419	1690
4	3992	3919	5806	2358
4	3868	420	5109	419
4	4326	6293	6210	6212
4	5471	2740	5466	5024
4	4326	6293	5466	5471
4	4374	1908	5807	1876
4	6094	2198	2051	419
4	4651	2282	5821	2198
4	3812	5684	5683	3896
4	2594	4463	2545	2584
4	1699	5704	438	4149
4	3927	2268	2293	2277
4	2435	6141	6072	2496
4	6027	4737	5902	3819
4	4326	4324	4325	4607
4	5471	5466	2740	6293
4	2735	2736	6293	5761
4	5262	2284	2204	2367
4	4312	4072	4717	4103
4	6293	5761	2736	5471
4	4865	5169	2284	2586
4	4670	6194	5248	5716
4	6044	1952	6043	1928
4	4086	4088	5432	4089
4	2041	5696	2199	2284
4	4326	5761	5471	4607
4	3974	5173	3975	4786
4	4272	5506	5810	5671
4	2624	5440	5173	3980
4	4711	3995	3997	4007
4	5569	1853	1857	1809
4	4149	1698	4150	4147
4	4127	4139	4129	4141
4	4215	4217	4231	4233
4	5978	5985	1851	1733
4	3865	3870	6184	3874
4	5830	1873	5393	5558
4	4309	4072	4104	5170
4	4618	1676	407	408
4	5725	4784	5144	5145
4	3975	5144	3973	5725
4	2199	2284	5696	5169
4	4783	4782	5831	6262
4	4502	3832	2897	2898
4	6177	6160	485	2901
4	5920	2110	2291	2372
4	4784	5724	4146	5441
4	5487	1632	2016	1633
4	5146	5145	2639	5144
4	4785	6276	3980	5440
4	5487	2029	2016	1632
4	4806	5934	5929	1654
4	5146	2639	5441	2625
4	5173	3980	5440	4786
4	5860	2604	2605	70
4	5146	5440	4786	5173
4	6168	2292	2359	2281
4	4238	3881	4230	4231
4	4230	5977	5222	3882
4	5891	2205	2210	4950
4	6120	2255	2159	2121
4	6168	2281	2359	2271
4	4078	3839	3832	4500
4	4876	4734	5415	6126
4	3928	2152	2145	2277
4	3990	2277	2358	2152
4	5320	6175	4422	4454
4	4873	4876	4872	4771
4	4181	4425	4176	4186
4	4178	4180	5843	5636
4	3927	2293	2268	2299
4	4176	4192	4186	4188
4	3989	2662	2666	2084
4	5462	5759	5647	5758
4	380	2018	2031	5418
4	5916	5877	5965	1862
4	4501	6177	4502	4505
4	4371	5719	5554	5555
4	4179	4191	5719	5913
4	6281	5872	6197	2978
4	4173	2633	5020	5996
4	5667	5743	890	5214
4	6281	2968	6136	2978
4	5397	5496	2253	5400
4	4806	1640	5934	1639
4	5499	2274	2184	2263
4	1768	336	5727	5081
4	6281	2968	5767	6136
4	6281	2969	2979	6197
4	5796	2418	2412	2406
4	4497	5668	4460	4459
4	5423	2475	2402	2404
4	4730	5196	4940	4732
4	6227	2945	4886	2946
4	5319	5464	5462	5758
4	5156	4131	896	910
4	4491	5464	4418	4355
4	4355	4491	5464	5703
4	4491	4496	5703	4355
4	5250	2914	5734	6264
4	5057	176	894	177
4	5290	5552	5646	5645
4	5926	2409	2414	2331
4	2581	4942	4939	2535
4	4518	4513	4037	4527
4	5517	4874	5519	5518
4	4053	4476	4466	4468
4	6030	5010	6031	6032
4	4472	1991	4476	4474
4	5065	4512	4691	5070
4	4809	2417	2473	2341
4	4518	5148	4527	4037
4	4691	4512	4040	4511
4	4691	6048	4693	4470
4	4470	4467	6048	6120
4	5148	5520	5152	6154
4	6168	4466	4471	4477
4	4466	6120	4479	4467
4	4472	4470	4512	5070
4	6131	2963	4412	5196
4	4769	2415	2414	2504
4	5998	2399	2218	2341
4	5817	4316	4312	4103
4	5063	6131	5183	177
4	6131	4412	5919	5196
4	6131	5183	5196	4144
4	5063	4144	6131	178
4	5536	6135	6091	6136
4	2219	5963	2329	2328
4	5470	4443	6066	6100
4	5560	4624	5562	5561
4	5963	2219	2329	2228
4	5535	4913	5658	4915
4	6177	1985	6160	4505
4	6214	2317	2213	2177
4	5015	6290	2343	2418
4	6242	2399	2473	2486
4	5535	5561	5560	5559
4	2334	4852	2411	2412
4	6135	4913	5658	5536
4	4913	4856	6135	5661
4	2732	4607	5761	2727
4	5000	5985	1831	1863
4	3824	3825	4370	4767
4	5305	2322	2235	2324
4	5300	2400	2319	2322
4	6177	486	2902	485
4	4370	4768	4767	3825
4	4425	4186	6086	5897
4	4190	5328	4425	4372
4	5328	5330	4425	4372
4	4370	4768	5898	4424
4	5693	2266	2273	2153
4	2872	5698	5075	5135
4	4914	5832	5622	4918
4	4914	5622	5626	4918
4	4914	4853	4913	4917
4	4960	4686	4433	4434
4	5670	2317	2399	2419
4	5220	2218	2399	2317
4	4960	4962	4434	4433
4	4449	4746	5172	4437
4	6049	6177	1976	486
4	4904	2333	2335	2232
4	5744	4765	4795	4763
4	5818	1660	1661	1656
4	4960	4449	4433	4964
4	4962	4434	4650	4961
4	4303	4961	4962	4304
4	4961	4962	4520	4303
4	6024	4798	5238	5242
4	4939	2581	2535	2589
4	4941	2537	2538	2551
4	5655	4643	5247	4695
4	5242	5247	5907	5749
4	5244	4021	5820	5034
4	5309	4410	4032	5310
4	4552	4553	5305	5303
4	6076	179	891	180
4	5678	2993	2994	2983
4	5669	2645	2117	5021
4	5888	2412	2483	2411
4	4926	6004	6256	5669
4	5134	2332	2411	2413
4	2077	2645	2117	5669
4	6256	2077	6004	2177
4	4874	2335	4905	2415
4	6256	2177	6004	6214
4	6039	4735	4732	4812
4	6256	5669	6004	2077
4	6256	5016	5021	5995
4	5519	2417	2340	2416
4	5182	2227	2337	2338
4	6130	175	896	895
4	5699	176	2953	175
4	5463	5462	4967	5648
4	5453	4421	6124	4967
4	4381	2393	2310	2391
4	5435	1603	238	237
4	4413	4418	4419	4422
4	6231	2908	2918	2919
4	5319	5463	5462	4419
4	5345	5604	2515	2518
4	4413	4422	4419	4420
4	6294	6295	589	2905
4	3852	5403	3853	5402
4	4449	4086	4964	5461
4	4088	5460	5459	4086
4	4378	2307	2384	2391
4	5770	5530	241	2932
4	4432	4498	3850	4434
4	6023	2511	2553	2507
4	5701	2306	2386	2304
4	5740	2306	2251	2248
4	3873	581	580	2695
4	4496	342	1573	343
4	4119	2249	2307	2247
4	4502	6160	2901	4079
4	4086	4433	4964	5458
4	4121	4122	4221	5601
4	6249	4833	4832	6093
4	4832	6249	4831	4833
4	4822	4824	4827	6229
4	4822	4827	4828	4834
4	4656	2304	2257	2251
4	6160	4505	1985	1994
4	6078	3925	3926	6107
4	5381	4833	4828	2833
4	5818	1661	4295	408
4	5189	4825	4832	4751
4	6188	2274	2269	2136
4	4984	2287	2286	2369
4	5407	1757	1682	1681
4	4704	1856	1899	1932
4	5381	5190	2829	2833
4	4005	2287	2201	2286
4	5381	4828	5190	2833
4	4704	1932	1899	1961
4	1786	4259	4261	1759
4	2502	4336	4335	4333
4	4822	4834	4828	4833
4	4218	2065	4219	5154
4	5154	2149	4219	5512
4	513	2065	2798	514
4	6294	6019	2771	6264
4	4093	3030	3041	3031
4	2798	514	2065	5154
4	5154	2798	4220	4218
4	5154	2065	4219	2149
4	5154	5512	4868	2066
4	5154	4220	2794	4868
4	5154	2066	2794	514
4	4775	2348	2422	2346
4	4943	4956	4954	6119
4	5357	4952	5356	5445
4	3941	2855	2859	2856
4	5992	3965	5467	4953
4	6072	5806	2433	2211
4	4502	6160	6177	2901
4	4455	2444	2293	2375
4	5700	4358	5950	5949
4	5107	2197	4845	2193
4	5125	6044	5130	5126
4	5615	2549	2543	2495
4	6110	2352	2353	2431
4	5355	5523	5357	5993
4	5509	2352	2294	2224
4	5355	5523	5993	5708
4	4864	2549	2550	5615
4	5355	5445	5357	5356
4	6294	590	5862	2904
4	4484	1885	6095	5566
4	5992	5983	6156	4953
4	5111	2454	2503	2490
4	4744	5139	1961	1949
4	6296	2431	2493	2428
4	2516	2583	4864	2550
4	5357	5983	5993	5992
4	4943	4946	4957	4951
4	5749	2296	2308	2261
4	5693	5104	5225	5240
4	5331	5830	5329	1872
4	5749	2270	2296	2261
4	6009	5492	4997	4337
4	6294	2905	589	590
4	5104	5230	5228	5225
4	5239	2428	2294	2352
4	3869	3870	5493	6094
4	4205	4997	4337	6217
4	5755	2294	2266	2224
4	4997	4199	6217	4205
4	4336	5311	4335	5312
4	5806	2358	2433	2211
4	6025	2513	2560	2539
4	3989	2662	6134	5713
4	5827	2513	6026	6297
4	4337	4336	4997	6009
4	5866	4410	6291	6217
4	4028	4406	4034	4890
4	5750	2392	2342	2308
4	6064	1809	1857	1810
4	4837	2392	2387	2342
4	5655	5974	5656	5392
4	5748	5749	5750	4697
4	6025	6097	2539	2560
4	3918	3989	3924	3928
4	4241	4243	5112	5111
4	4858	5112	4241	4982
4	5373	1893	6045	1888
4	5844	2460	2493	2431
4	4242	4485	4983	4246
4	5374	5477	1788	1804
4	6042	6045	1928	1888
4	4535	2460	2379	2420
4	4243	4255	4982	5262
4	5241	2294	2377	2298
4	4744	4258	1960	1961
4	5241	2428	2487	2377
4	4481	5282	4484	4483
4	3983	3986	4151	4843
4	4778	2390	2454	2490
4	3954	5142	5840	6055
4	6194	2383	2353	2275
4	3961	3958	3956	2689
4	2690	2685	6061	3961
4	4157	6195	4689	4503
4	6106	5479	2883	1746
4	5326	6163	6042	1921
4	5224	5225	4781	4773
4	3961	2689	6083	2690
4	4651	2198	3868	419
4	5793	6053	5902	1692
4	4766	3867	4756	4989
4	4212	5891	4821	5715
4	5553	5555	4371	5554
4	3812	5037	5204	5684
4	5616	5385	6092	1799
4	4540	1591	1606	1605
4	5003	2423	2351	2427
4	3865	6184	3866	3871
4	5124	4099	5115	5114
4	4072	2283	2362	2196
4	4717	2196	2362	2212
4	5839	5114	4100	5789
4	4099	4100	5789	6193
4	5459	1851	1896	1917
4	5459	1851	5985	1896
4	3845	3846	5702	5960
4	4525	4535	4514	4530
4	3839	4082	4689	4503
4	5327	5812	1968	1952
4	3836	3839	4082	4689
4	2442	2443	6170	2426
4	4985	2422	2442	2426
4	3836	4508	4510	4689
4	3831	3839	3834	3832
4	3831	4070	3837	4066
4	4629	4628	5844	4630
4	4629	6057	4630	5844
4	6057	6194	6110	4670
4	2490	2441	5112	2491
4	5407	1677	1682	5408
4	4524	2503	2516	2548
4	4045	6057	4629	4670
4	6057	4630	6169	4045
4	4608	4154	4609	4323
4	5375	5246	1840	6098
4	4184	4583	5747	4494
4	5756	2165	5105	2224
4	6001	1951	1954	1932
4	4704	4257	4258	1899
4	4494	6298	4493	5747
4	4494	4493	6298	4578
4	5112	2441	2367	2287
4	4009	4015	4011	4012
4	4999	1900	1902	1853
4	4494	4849	4184	4583
4	4627	4958	4628	4625
4	5160	2668	5706	2672
4	5285	1708	1760	1761
4	4323	4166	4457	4458
4	5921	2505	2291	2206
4	5753	1940	1761	1905
4	5484	5486	4678	5032
4	4091	2364	2500	2438
4	2445	5893	5870	2371
4	4492	4494	4608	4325
4	3918	3992	3990	3919
4	5892	2371	2374	2292
4	5607	2734	2729	2733
4	4502	6049	2898	2902
4	4948	4950	4949	4209
4	4535	4045	6056	6169
4	5893	2445	2448	2374
4	4523	2493	2583	2487
4	4949	6207	4755	2505
4	5870	2371	2498	2445
4	4457	4182	4849	5632
4	5890	2374	2359	2292
4	4514	2420	2300	2355
4	4981	5890	4521	4528
4	4528	2359	2434	2356
4	4457	4849	4458	4168
4	3920	2674	5009	3923
4	3818	2657	6028	3819
4	5793	1689	5791	6014
4	6028	5791	2654	6014
4	6028	2658	5713	6071
4	5451	2388	2306	2309
4	5793	6028	5902	6071
4	5017	5466	4326	6293
4	6049	488	2902	487
4	4580	5017	5026	5466
4	5750	2381	2392	2308
4	5017	6240	6239	6299
4	4086	4089	5432	5461
4	5017	6251	5466	6293
4	5017	5026	5466	6251
4	2810	4115	5409	2809
4	4278	2452	2508	2451
4	4400	2295	2269	2297
4	5773	1575	340	1576
4	5409	2809	4115	5410
4	4117	5410	4115	2805
4	2805	2808	5410	2809
4	6056	2353	2383	2379
4	6090	5674	1962	1898
4	4212	3908	4206	4207
4	5409	5405	4741	2813
4	4335	2502	2457	4336
4	4334	2366	2502	2439
4	5410	5371	5405	4294
4	5746	2452	2378	2385
4	5653	2489	2519	2458
4	5410	4294	5405	2808
4	5410	5405	2809	2808
4	4745	4437	4633	5323
4	5844	4249	4630	4628
4	4671	4672	4629	4628
4	6141	2444	2435	2433
4	5948	5950	5039	1825
4	4502	6177	6049	2902
4	6173	5935	6011	1942
4	4598	2664	5203	3921
4	6072	2435	2496	2360
4	6173	1942	6011	1909
4	4626	4627	4673	4676
4	4956	4957	4955	5455
4	4352	1593	5606	1592
4	6270	344	1572	1571
4	5783	5500	5599	2952
4	4253	4252	4249	5129
4	4629	4628	6296	5844
4	4628	4672	5239	4251
4	4416	2386	2455	2450
4	4629	4628	5239	6296
4	5104	5077	5225	5228
4	5227	4250	5131	4246
4	5227	5566	4487	4484
4	5454	2311	2389	2309
4	5701	2306	2388	2386
4	4400	2378	2380	2295
4	5929	1659	1654	1658
4	5076	5077	5078	5246
4	4280	2451	2453	2380
4	5223	5228	5225	5076
4	5227	5231	5131	4250
4	4671	5128	4958	4676
4	5899	5901	6171	6265
4	2685	2681	6061	5720
4	5224	5225	5232	5076
4	5230	4251	4672	5128
4	5918	2815	5430	6232
4	5606	4399	5605	6016
4	4449	4086	5461	4089
4	4302	4520	4962	4303
4	4961	5965	4303	4963
4	5853	5315	5710	1720
4	5124	2396	2313	2314
4	4047	4304	4054	4055
4	6265	1568	1583	1582
4	5454	2394	2389	2311
4	4518	4519	4959	4633
4	5597	2941	2940	2951
4	4959	5148	4037	5325
4	4431	4438	4302	4305
4	4062	2512	2461	2453
4	4981	4308	4469	4053
4	4274	1590	1605	1604
4	5065	4159	5489	5490
4	4163	4157	4082	4503
4	4157	1987	5801	1978
4	6270	343	1572	344
4	4501	4503	4500	2039
4	5599	2941	2952	2942
4	4082	4163	4081	4157
4	4088	4013	5819	4260
4	4368	5591	4267	4369
4	4157	5801	1988	4158
4	4157	1988	5801	1987
4	5187	5188	5189	5198
4	4369	2393	2466	2395
4	4822	4834	6229	4827
4	4267	2312	2393	2395
4	6179	2323	2321	2401
4	4832	4751	4825	4831
4	4969	2616	6005	2615
4	4688	4159	4508	4040
4	6238	5743	903	889
4	4268	2318	2395	2398
4	5660	5767	2959	2958
4	5532	2532	2534	2480
4	5489	6128	5526	6155
4	5069	5522	5322	6152
4	5490	4662	4162	6113
4	5067	6113	4158	5490
4	5300	2402	2400	2322
4	1997	4158	5067	6113
4	4014	5432	4015	4258
4	4009	4014	4254	4260
4	5600	2321	2398	2401
4	4742	4748	4252	4744
4	5142	5438	6101	5147
4	3954	5103	5100	5142
4	4255	4243	4711	4256
4	4743	4711	4254	4704
4	3955	5103	3956	3958
4	5115	2319	2400	2397
4	3950	3951	5452	5101
4	3950	5101	3954	5102
4	5118	5840	5100	5142
4	2326	6165	5841	2323
4	5140	5100	5103	5142
4	5848	6203	2775	2779
4	5754	5114	4447	6033
4	6222	2907	2918	2908
4	5100	4830	5103	6111
4	5189	4825	4751	4749
4	5195	5384	5197	5329
4	4920	2947	2937	2936
4	4752	5391	5331	4407
4	4406	4890	4768	5828
4	6226	2326	2407	2328
4	4914	6196	6234	5842
4	4185	5930	2993	2994
4	5552	2575	2576	2589
4	5823	2402	2472	2400
4	5872	2977	2987	2988
4	5116	5114	5118	5124
4	5377	5805	5006	5199
4	6190	2531	2528	2476
4	6054	5122	5944	2243
4	4707	2987	2997	2998
4	5426	2472	2475	2526
4	5947	5843	4427	4428
4	6054	6102	2246	4441
4	4767	4768	4428	5947
4	4768	5828	4890	5947
4	4370	4428	4768	4424
4	5863	5862	3878	2763
4	4028	4768	4427	4424
4	4028	5972	5898	4424
4	2789	4566	4868	4575
4	5243	5034	5242	3806
4	3806	5034	5242	5907
4	5748	4695	4697	5750
4	4727	4792	4798	4643
4	5857	5854	4660	3029
4	5655	5247	5748	4695
4	6300	184	3033	183
4	4643	5247	4697	5906
4	5748	5247	5749	4697
4	4314	1906	1817	1774
4	4798	4643	5247	5655
4	5736	5622	6167	4918
4	5149	2627	2612	2626
4	3950	3954	3955	5102
4	5608	6164	5966	6096
4	4569	6166	5608	5596
4	5519	2416	2485	2417
4	5577	3003	4185	2993
4	5667	6076	180	5578
4	5641	2482	2410	2413
4	5542	2994	2995	2984
4	4569	4573	5608	4566
4	4560	6167	4567	4570
4	5608	6180	4573	5596
4	6165	6230	6166	5608
4	4681	5921	5488	5920
4	4681	5027	5032	5028
4	4333	2456	2593	2513
4	6176	2456	2381	2457
4	6176	2456	2392	2381
4	6161	2459	2456	2513
4	6161	2459	2387	2392
4	3967	4439	5452	5453
4	6161	2459	2392	2456
4	4681	5484	4678	5032
4	5488	5921	4680	3843
4	5765	4483	1935	1954
4	4996	2370	2368	2285
4	4681	4678	5484	5488
4	5503	2862	2046	2048
4	2513	4333	6026	2585
4	6009	4334	2366	2501
4	4681	5031	5030	5920
4	4333	2457	2593	2456
4	5557	6252	1849	1848
4	3874	2501	2497	2585
4	5913	5719	4179	6143
4	4150	4759	422	421
4	5947	2488	5828	2539
4	5484	5488	5485	5483
4	3842	4499	3847	3846
4	5485	5484	1626	5486
4	4678	4679	5028	1624
4	5112	2441	2503	2367
4	4016	4021	4022	4020
4	4485	4483	4480	4482
4	6255	72	6254	2602
4	5690	2491	2429	2490
4	4011	4863	4862	4859
4	4774	2349	2429	2348
4	5334	4463	4460	2584
4	4091	4090	4092	4867
4	5972	4424	6085	5898
4	1831	5985	1896	1863
4	4092	4432	4090	4433
4	4090	4433	4089	4092
4	4501	4503	2039	1977
4	4432	4092	4090	5870
4	5555	2555	2508	2510
4	5272	2554	2509	2508
4	5555	5719	5277	2558
4	5834	338	1577	339
4	4438	5893	4521	4305
4	5272	2508	2555	2554
4	5168	2199	2017	406
4	4432	4438	4305	5870
4	5327	4959	4916	5326
4	4292	2821	4297	2820
4	4528	2356	2434	2432
4	4522	4529	4052	4521
4	3936	4673	5476	5373
4	5006	5198	5005	5199
4	4293	4296	4297	4299
4	5188	6225	5397	5497
4	5821	2363	2282	2436
4	6139	2496	2545	2436
4	4293	4292	5192	4290
4	5308	5188	4289	6225
4	4290	4289	5308	5188
4	4651	428	2105	36
4	6255	71	6253	919
4	6291	6217	6090	5866
4	4290	5198	5089	5498
4	5874	2445	2498	2438
4	3987	3981	6021	6053
4	5965	1826	4055	5520
4	5458	5460	1959	4964
4	4753	2498	2446	2544
4	5108	2360	2211	5712
4	2197	2360	2211	5108
4	3987	4843	4844	5107
4	4618	408	4714	1676
4	5169	2284	2586	2199
4	4098	4072	2438	5874
4	4528	2255	2355	4530
4	4844	5108	5107	4987
4	3957	6301	5899	6172
4	4315	4807	1774	1664
4	5817	1652	4813	1656
4	4865	2284	4010	2548
4	4687	1939	5917	1964
4	4863	2550	2549	2546
4	5811	1935	4483	4482
4	4758	1675	421	420
4	3957	3959	3958	3962
4	5453	5701	4968	4439
4	5493	6080	6094	2440
4	6009	2288	2366	2439
4	2585	4333	3874	2501
4	3950	3955	3956	3958
4	6055	3956	3968	3954
4	4379	5531	4380	4378
4	6255	919	6006	920
4	2588	5843	5637	2580
4	6026	2497	2560	2585
4	4380	4378	5531	5732
4	5567	4380	5528	4059
4	2585	6026	2497	3874
4	1653	405	406	2017
4	5231	4250	4779	5241
4	4060	4435	4284	4282
4	4380	4057	4062	5732
4	4056	4380	4059	4057
4	3998	4619	3997	4713
4	4986	2442	2368	2443
4	3995	4613	4006	4615
4	4985	2369	2442	2491
4	4619	3995	3997	4711
4	5916	4214	5877	1814
4	3995	3996	3997	4008
4	4754	2373	2446	2290
4	4950	2210	5163	5495
4	4754	2290	5891	2373
4	4805	5167	4806	5855
4	5933	5855	4805	5939
4	5374	1844	5373	1847
4	5890	2374	2434	2359
4	4801	4802	4800	4839
4	6048	2255	2272	2159
4	5721	2011	1731	377
4	5965	1832	4055	1826
4	1938	1959	5458	1917
4	4803	4805	4806	5929
4	4814	4808	5929	4803
4	5435	1590	1604	1589
4	4308	4053	4471	4469
4	5435	1603	1589	1604
4	5324	1968	5323	5884
4	4306	4650	4962	4434
4	4049	6122	3912	5721
4	4863	2586	2548	2546
4	2487	5111	5689	2454
4	4048	4650	4304	4962
4	4210	3912	4049	4214
4	5262	2548	2284	2367
4	4207	4434	4649	4650
4	5216	4809	5219	5220
4	4863	2546	2548	2550
4	4860	4864	5615	4861
4	5326	5340	6163	1921
4	5615	2495	2543	2494
4	4535	2494	2460	2420
4	4529	2434	2495	2432
4	5061	5216	5219	5218
4	4086	5458	4964	5460
4	2549	2500	4867	2546
4	4140	4971	5633	2628
4	4969	5213	5056	4975
4	5055	4136	5215	5216
4	5241	2377	2294	2428
4	4523	2493	2487	2428
4	4951	2511	6023	4414
4	3811	3819	3822	5686
4	3985	4737	3814	3982
4	5650	345	1571	1570
4	4460	2578	2542	2449
4	5668	4454	2542	4460
4	3983	3985	3982	3987
4	5555	2558	2555	2510
4	5668	2542	2375	2449
4	5311	2425	2465	2382
4	4336	2457	2465	2439
4	5714	4999	1900	1902
4	4995	3984	4992	5358
4	4021	6170	4017	5820
4	5524	1603	1602	1588
4	5793	5902	6027	1692
4	5869	234	233	1599
4	6172	1582	1597	1596
4	5793	3981	6053	6021
4	4414	2507	2450	2455
4	3981	6070	6071	5713
4	5982	1587	1601	1586
4	4414	2511	2507	2455
4	3813	4599	3812	3986
4	3933	5351	3935	3930
4	2450	5668	4422	2376
4	5897	1766	6082	5328
4	5746	2385	2458	2452
4	5809	2458	5654	2510
4	4367	5653	2489	2519
4	335	336	5727	1768
4	5653	2458	2519	2510
4	4081	4162	4159	5490
4	4159	4508	4040	4164
4	6173	5807	5808	1909
4	4080	6037	4162	5350
4	3933	5351	3930	4080
4	3816	5439	3992	5712
4	1601	1586	6156	5982
4	5377	2488	2424	2387
4	4160	4162	4161	4084
4	3930	4080	6037	4164
4	5399	2342	2387	2302
4	4678	1624	5486	4679
4	1617	5795	5486	4679
4	5732	2384	2453	2461
4	4284	5212	5211	6219
4	5486	1617	4679	1624
4	5502	5486	1619	4105
4	5374	5048	6106	5479
4	5374	5048	5373	1844
4	5404	5486	4105	5795
4	5502	1619	5486	1626
4	4538	239	2952	238
4	5536	6091	6135	4856
4	5140	5103	5100	4830
4	4608	4458	4457	4849
4	5789	2396	2397	2469
4	4200	2979	2990	2980
4	6273	6301	2679	2683
4	5943	2394	2467	2463
4	4608	4850	4582	4609
4	4325	4457	4323	4166
4	4317	4166	4325	4323
4	5115	2239	3999	5300
4	4321	5217	4328	4577
4	5277	2558	5719	2587
4	4577	4169	4166	4458
4	6038	2462	2455	2388
4	4957	2389	2463	2462
4	4423	2506	2450	2507
4	5304	5835	5255	5302
4	4446	5114	4001	4447
4	6049	487	474	2039
4	5254	6259	5836	4175
4	5768	2942	2932	2931
4	5604	2515	2464	2461
4	5212	2566	2520	2564
4	4446	5140	5118	5100
4	6197	2978	2989	2979
4	5254	4175	5836	4447
4	5661	2947	4856	2957
4	5582	2569	6206	2570
4	6259	5854	5835	5836
4	4387	6115	2981	5940
4	4288	5519	6302	2340
4	5051	5374	5048	5373
4	5835	5256	6259	5254
4	4975	6254	920	921
4	5374	5477	6106	1788
4	4446	4448	5754	4447
4	5254	4447	6260	4175
4	5292	2533	5646	2477
4	5888	2483	2484	2411
4	5577	180	3003	2993
4	4590	5836	5854	4174
4	4783	6262	5856	4232
4	3972	3970	5092	4782
4	3876	4215	3970	3879
4	6103	2523	2471	2468
4	4783	6213	5155	912
4	3969	3974	3977	3973
4	4784	4217	3971	4129
4	4233	4232	4783	4235
4	3971	4782	3972	3980
4	5767	2968	2969	2958
4	5604	2518	2464	2515
4	4782	2752	6200	5831
4	4783	5856	5831	6276
4	5849	2916	2917	2906
4	5369	5371	6233	6278
4	4901	4899	4898	1796
4	6187	2927	2937	2938
4	2919	6138	2929	2918
4	5369	4465	5405	6278
4	6218	6089	2565	2521
4	4395	4399	4394	4383
4	5369	6278	5405	5371
4	5822	2522	2469	2470
4	5823	2472	2470	2400
4	5537	5774	5931	6292
4	5085	4296	5369	5086
4	5371	6149	6278	5405
4	2528	2526	5426	2475
4	5099	5369	5372	5093
4	6022	2989	2988	2999
4	5372	5405	5410	5371
4	4739	5405	2812	2813
4	5624	6227	5626	5414
4	4912	4914	4915	6196
4	4726	1737	1740	4797
4	4942	5739	4770	4812
4	5413	2934	2944	2945
4	4942	2473	2417	2529
4	4936	2581	2551	2529
4	4935	4940	4812	4811
4	5364	5547	5532	4912
4	5552	2589	2576	2581
4	6227	2935	2946	2936
4	4942	2485	2529	2417
4	5989	5895	5138	5796
4	2416	5519	2485	4769
4	4912	4854	4913	4853
4	5627	894	176	895
4	5364	4909	4884	4854
4	4183	4185	4583	5786
4	4770	2535	2485	2481
4	5968	2955	4885	2954
4	5879	2983	2984	2973
4	6150	2963	2953	176
4	4534	4582	4532	4531
4	5864	2975	2976	2965
4	4936	2581	2576	2551
4	5537	4601	4600	4602
4	5951	2536	2484	2537
4	5895	2419	2530	2418
4	5678	2993	5930	2994
4	2483	2530	5952	2537
4	4812	4811	4810	4935
4	4185	4183	4819	5786
4	5538	5786	5541	5544
4	6292	5538	5931	5537
4	5404	5814	4911	5184
4	6131	5183	6150	5196
4	4679	3886	389	390
4	5542	2984	2995	2985
4	4499	5404	5486	5485
4	4810	2538	2486	2473
4	4727	4797	4898	5428
4	5895	2530	2483	2412
4	5796	5989	2418	6290
4	4679	3886	390	5184
4	5850	2413	2484	2482
4	1618	5486	1617	5795
4	4266	6180	5595	5596
4	5689	2487	2454	2377
4	4480	4483	4484	4482
4	4259	1786	1897	1931
4	5595	4576	5596	4572
4	5638	2547	2560	2497
4	6049	4500	2365	2039
4	5444	2506	2578	2449
4	4574	4869	4870	5980
4	4569	4566	4575	4573
4	4203	4202	4621	4622
4	5980	5981	6231	6138
4	5834	339	1577	1576
4	5828	2459	2488	2387
4	4571	5976	4569	4568
4	6137	6231	4571	6222
4	4274	5435	1604	4536
4	4240	4536	4274	4540
4	5442	4192	5386	5448
4	6272	2590	2465	2425
4	4711	5695	4255	4254
4	3808	5906	5882	2265
4	4009	4256	4012	4255
4	4523	2487	2583	2516
4	4438	5893	5870	6215
4	4867	2448	2445	2500
4	4244	4743	4711	4256
4	4012	4862	5262	4243
4	6184	2198	3866	2363
4	1740	4797	4898	4726
4	5638	2499	2547	2497
4	4010	4862	5262	4012
4	4490	340	341	1715
4	4009	4254	5695	4260
4	4862	4865	4010	2548
4	6044	1918	5126	4748
4	4009	4014	4256	4254
4	5127	1950	4748	1918
4	2441	5112	2503	2490
4	4867	2549	2448	2500
4	5697	2043	4617	2204
4	4963	5884	5885	1948
4	5893	2448	2434	2374
4	4982	4004	4255	4711
4	4982	4004	4711	4007
4	4898	1796	4899	1846
4	6091	4722	5546	5536
4	6215	2448	2495	2434
4	4087	4685	5458	5402
4	4861	2549	2495	2448
4	4466	4472	4476	4474
4	4240	4274	4536	5435
4	4794	4763	6150	2953
4	4417	5465	4421	5462
4	5610	4703	4721	4702
4	4912	5534	5361	5548
4	4454	2542	2444	2375
4	5161	5315	5316	4659
4	4460	4463	2542	2584
4	5975	6011	6173	5935
4	5654	2423	2489	2458
4	5450	2552	2507	2553
4	5277	2558	2587	2555
4	4912	4914	6196	5532
4	6159	1776	5329	5802
4	5657	5658	4915	5559
4	5277	2587	2552	2555
4	4917	4853	4913	4920
4	4912	4909	4914	5532
4	4453	4419	4418	5668
4	5313	4451	4452	5314
4	5367	4192	5366	4490
4	5319	5648	5463	4659
4	5803	1575	341	340
4	4241	5111	4242	4243
4	4491	5707	5447	5709
4	4975	6254	6005	6006
4	1666	2043	4617	5697
4	5319	5758	5462	5647
4	5444	2587	2578	2506
4	5913	2582	2578	2587
4	4363	4491	4355	4496
4	5449	2552	2506	2507
4	5443	2587	2506	2552
4	6097	2560	2592	2539
4	4367	2541	2540	2492
4	5636	2588	2582	2577
4	5376	2424	2488	2492
4	4355	5703	4356	4364
4	4700	5594	5785	4823
4	5708	1573	1588	1587
4	4496	343	1573	1572
4	4822	4823	4824	6229
4	5334	2584	4460	2578
4	4750	4831	4825	4751
4	5971	6112	6011	1865
4	4700	4695	4829	5785
4	2519	5555	2510	2558
4	5750	4403	4829	6178
4	4695	5785	5750	4829
4	4697	5750	4695	5785
4	5707	342	1574	1573
4	6026	2585	2560	2513
4	6161	5751	2456	2392
4	5347	1908	4376	5343
4	4897	4831	4829	4978
4	6182	2561	2562	2559
4	4975	6005	6254	4976
4	5065	4512	5521	5235
4	4036	4040	4509	4042
4	4041	4040	4164	5235
4	4039	5326	4627	4916
4	5280	5346	5347	5348
4	4036	4041	4044	4039
4	5069	6133	6128	5522
4	5065	5068	5490	5067
4	5211	2564	2520	2518
4	5456	6269	4953	6205
4	4043	4041	6155	5235
4	4509	4513	4512	4040
4	4476	4051	4468	4053
4	6281	6197	5872	6136
4	5783	2951	5782	2961
4	5210	2518	2520	2466
4	5521	5235	4037	5341
4	4965	3957	5899	3952
4	5789	2469	2467	2396
4	6279	2469	2521	2467
4	5619	4791	5618	4772
4	6186	2525	2474	2471
4	6254	921	6267	73
4	5708	5982	5709	1587
4	5296	5295	6189	2574
4	6104	2468	6103	2471
4	2570	5549	5533	2527
4	2788	2785	4575	5976
4	6124	4967	5462	6157
4	3951	3952	4967	6123
4	5452	3950	3954	3968
4	3957	6172	5899	6171
4	5822	2470	2524	2522
4	5528	4057	4380	5531
4	6303	2521	2469	2522
4	5528	4379	4343	5529
4	5953	2522	5822	2524
4	4398	5406	5531	5370
4	4380	5732	5531	4057
4	5599	4344	4343	5209
4	5989	2419	5895	2418
4	5952	2537	2530	2486
4	4398	5731	5531	5406
4	6196	2527	2478	2474
4	5531	6285	5406	5731
4	5531	5731	4398	5732
4	5535	4915	5658	5559
4	4657	5648	5463	4968
4	5955	2472	2526	2524
4	4657	4968	4658	5648
4	5319	4356	4453	5464
4	4966	4439	5740	5014
4	5954	2526	2528	2571
4	5453	4946	6124	4421
4	5012	4655	5833	5013
4	6196	2478	2527	2532
4	4944	5983	4945	4953
4	5159	5160	5875	4661
4	4658	4659	5648	5649
4	4142	179	2983	178
4	6255	6005	6254	6006
4	5951	2536	2482	2484
4	4927	5910	5016	5859
4	5292	2482	2533	2477
4	5218	5219	5138	5670
4	4810	2551	2538	2529
4	4942	2535	2529	2485
4	4818	5138	6242	5895
4	5138	5670	5219	6242
4	5064	5213	891	892
4	5061	5060	4731	5216
4	2527	5549	5533	2532
4	4869	6202	5981	5781
4	6138	2920	5775	5777
4	6189	2573	2574	2572
4	5977	2934	2923	2933
4	5514	5777	6246	5775
4	4221	4226	4224	4220
4	4869	4870	5980	6202
4	4810	2473	2529	2538
4	4628	6296	4251	5239
4	5757	5106	5104	5105
4	4524	2548	2516	2550
4	5240	5241	2294	5239
4	5970	4779	4774	2349
4	4086	4088	5460	5432
4	5168	4072	2017	2283
4	5044	5105	5047	5509
4	4742	4746	4747	6183
4	4669	5046	4676	4675
4	5615	2583	2543	2550
4	5844	2493	2460	2494
4	4213	6122	3912	4214
4	6254	72	73	2602
4	5615	2543	2583	2494
4	4672	5482	6110	5509
4	5333	2584	2580	2545
4	5333	2545	2580	2499
4	5821	6151	6140	2436
4	5718	2519	2540	2577
4	5523	1603	5433	1602
4	5718	2540	2579	2577
4	5482	5047	5046	4675
4	5377	5376	2424	2488
4	4367	2492	2540	2489
4	4730	5664	5196	5919
4	4367	2540	2519	2489
4	4181	4187	4354	4365
4	4426	4355	4459	4461
4	4375	4361	4426	4991
4	4992	5700	4993	4361
4	4028	4768	4424	5898
4	6143	2558	2582	2587
4	4354	4362	4360	4361
4	6143	2582	2558	2577
4	4361	4360	4357	5949
4	4460	2578	2584	2542
4	4362	4374	4377	4376
4	5527	1589	1575	1590
4	5638	2499	2580	2547
4	5468	3963	235	2992
4	4365	341	4490	342
4	5700	4993	4361	5949
4	6254	920	73	72
4	5333	5636	5637	2588
4	2588	5636	5718	2577
4	2579	5843	2592	2541
4	6097	2592	2541	2539
4	5638	2580	2592	2547
4	1850	1785	4147	1732
4	5336	2436	2545	2499
4	5333	2588	2580	2584
4	2438	2364	2283	4091
4	5109	420	1690	419
4	6255	6007	6253	2603
4	5345	2559	2562	2515
4	5599	2941	5597	2951
4	3848	4311	5677	3844
4	5823	5300	2400	5115
4	2511	6023	2557	6118
4	4821	5870	4753	4432
4	4517	4449	4520	5172
4	4960	4686	4434	4961
4	6219	2564	2562	2563
4	4087	4089	4433	4092
4	5345	2562	2518	2515
4	6075	6253	6073	5742
4	5166	5000	4887	4313
4	6286	1587	1602	1601
4	2561	2514	2557	6118
4	5817	5166	1660	4814
4	5817	1660	5818	1656
4	6117	2563	2561	2517
4	4803	4807	4800	4814
4	4073	4316	5166	4887
4	6173	4112	1969	1963
4	5166	4295	4313	4887
4	5912	2584	2578	2582
4	4425	5330	6082	6112
4	4095	5166	4295	5818
4	5166	4315	5818	1660
4	4681	5488	5484	5031
4	6008	1852	1944	1787
4	4148	5948	5039	5038
4	3888	3889	5029	4677
4	4499	5484	5486	4678
4	5081	5082	5079	5802
4	3891	4077	4716	4076
4	5954	2569	2524	2526
4	4680	3842	3844	3892
4	5767	2969	2970	2959
4	3892	3844	4680	5915
4	5824	2960	2950	2949
4	5423	2402	2475	2472
4	6253	2604	6007	5742
4	6100	2566	2568	2523
4	4547	4533	4611	4600
4	5860	6253	2604	70
4	5705	2559	5349	5276
4	5824	2959	2960	2949
4	5782	2950	2961	2951
4	4547	4548	4611	4546
4	4548	4612	4646	4611
4	4648	4551	4611	5609
4	6010	2525	2568	2570
4	4533	4531	4611	4584
4	4652	4611	4531	4584
4	4648	2721	5396	4506
4	5424	5300	5302	5305
4	4200	5767	6197	2969
4	6206	2570	2569	2571
4	5421	5954	5955	5426
4	5990	2563	6218	6219
4	4709	5537	4547	5771
4	4554	5424	5305	6185
4	5551	5581	5560	5561
4	6253	918	6073	919
4	6189	2572	2571	2573
4	5610	5543	4787	5297
4	4729	4732	4812	5517
4	6040	4723	4788	2987
4	4729	4770	4812	6302
4	4729	4812	4730	4811
4	5547	2575	2534	2532
4	5865	2967	2966	2977
4	4855	2956	2946	2945
4	4770	5519	4729	5517
4	6161	6025	2513	5827
4	5276	5344	4893	2556
4	4812	4730	4811	4940
4	5843	2579	2592	2580
4	4938	5666	4811	5219
4	5620	4939	5364	5739
4	6039	5517	4812	4732
4	6241	2611	2597	2596
4	4006	4617	4616	1667
4	5657	6114	5559	4915
4	6280	915	6304	67
4	5657	5658	5659	5660
4	5589	6114	5588	6104
4	4266	4265	5514	5595
4	5725	2144	2236	2182
4	5514	4344	5776	4265
4	5880	5153	6213	925
4	5144	2082	528	2083
4	4238	5222	4231	4230
4	3878	2764	2760	2763
4	6246	6138	5777	5514
4	6299	6280	6247	914
4	5856	6305	4232	6262
4	6276	6288	6306	2609
4	4932	6114	5832	5595
4	6167	6230	5622	4559
4	6305	2755	6262	2751
4	6230	5841	6165	5832
4	4570	6166	4932	6167
4	5832	5841	6165	6179
4	4123	6129	6130	5627
4	6288	2595	571	2609
4	6307	2599	75	76
4	5622	6230	6167	5832
4	6280	6247	66	2608
4	6299	6280	914	915
4	4932	6167	4918	4570
4	5832	6230	6167	6166
4	6166	4932	4572	4570
4	4569	4576	4572	5596
4	6308	79	78	926
4	5585	4572	6187	5583
4	5968	4795	2954	4885
4	6187	4570	4572	4932
4	5832	5595	5596	4932
4	5880	6309	925	77
4	5585	6201	4576	4572
4	4569	4567	6166	4570
4	2639	528	2082	529
4	6002	2074	2181	2075
4	5714	1900	1854	1901
4	4932	5575	6187	4570
4	4570	5575	6187	6221
4	6109	2915	2916	2905
4	6179	5595	5596	5832
4	5785	4697	4696	4695
4	5145	2081	529	2082
4	4694	4695	4700	4696
4	4825	4829	4403	6178
4	6309	2598	5150	5151
4	4897	5655	5428	5656
4	4831	4833	6249	4900
4	4971	2628	2629	2614
4	5145	2082	2182	2081
4	3863	2333	2232	2225
4	6306	6288	570	2609
4	5558	6092	6252	4832
4	4829	4978	4403	4838
4	4831	4751	4750	5557
4	6309	76	6307	924
4	5146	5441	5440	2625
4	3946	2777	4564	2778
4	5085	5368	5099	4350
4	6309	924	5153	925
4	6309	2598	76	77
4	5724	2178	2182	2227
4	2626	5441	5149	2627
4	5630	2231	2178	2227
4	5181	2231	2227	2338
4	4905	2331	2414	2333
4	5369	6233	5371	5876
4	5518	2231	2338	2340
4	5371	6233	6278	6148
4	6266	2943	2933	174
4	4560	5736	6167	4570
4	6256	2213	2117	2077
4	6230	5841	5832	5622
4	4914	4853	4917	4918
4	4562	5733	5623	4559
4	4914	5622	5841	6234
4	5618	2481	2414	2409
4	6130	4131	895	896
4	5723	5508	6036	5507
4	6310	2599	2600	75
4	5634	2612	2613	2598
4	6309	924	77	76
4	4969	4929	5213	6005
4	5057	177	894	893
4	6007	2603	2618	2604
4	5576	5621	5617	5622
4	5023	2631	2632	2617
4	3975	4786	5173	5146
4	5092	4233	3877	4234
4	3978	3970	3879	3880
4	6310	2600	74	75
4	5121	889	5667	5120
4	5063	5064	178	892
4	4137	2340	2226	2231
4	4127	4141	4784	4146
4	3978	3879	3862	3880
4	3978	3979	3970	3880
4	4231	3876	4215	4233
4	4142	2983	2973	178
4	5213	891	906	905
4	4217	4235	4785	5011
4	2643	532	2078	533
4	4772	2535	2481	2479
4	4976	2601	2600	2615
4	6267	74	2601	73
4	3970	3880	2757	3877
4	6156	5457	4953	4944
4	6214	2218	2317	2177
4	4044	5236	4045	4670
4	5456	5457	6269	5868
4	6304	68	2606	2607
4	5456	6269	6205	6275
4	4955	5457	4944	4953
4	5455	5943	4956	4957
4	4952	5356	5705	6118
4	2647	536	2156	537
4	6269	3965	4953	6205
4	5996	2647	2632	2646
4	4183	4185	5121	4182
4	6004	2078	2177	2077
4	5355	5356	5274	5445
4	5914	4460	4497	5668
4	4413	5446	4418	4423
4	4951	6023	4952	4945
4	6005	2602	2601	2616
4	5998	2226	2341	2218
4	6280	2607	2608	67
4	5796	2418	5989	5895
4	4442	5434	5525	4435
4	4056	4380	4057	4062
4	4284	4444	4443	4442
4	5273	5276	5274	4893
4	6255	2603	71	72
4	5669	2077	2645	2644
4	4056	4380	4282	4059
4	2646	2632	5996	5021
4	5020	2619	2618	2633
4	5995	2276	2344	2343
4	5528	4379	5531	4380
4	4442	4435	4284	4060
4	5050	5049	5479	2884
4	4435	5604	5211	4282
4	4283	4284	4442	4444
4	4328	4329	4330	5041
4	4577	2223	4322	5217
4	6255	6073	6253	6007
4	537	2648	2192	2156
4	5022	2343	2339	2230
4	5860	70	2605	69
4	5119	4847	4169	5132
4	4166	4458	4169	4168
4	5946	6036	2890	5676
4	4653	5337	4652	5229
4	4652	4597	4506	5229
4	4652	5337	4495	4597
4	5910	2344	2418	2343
4	4495	5603	5337	5747
4	4495	5603	4493	4597
4	4597	5337	4495	5603
4	4580	5026	2621	2635
4	4329	2104	2132	2207
4	4654	5229	5396	5110
4	5661	2947	2958	2948
4	4534	5134	5799	5544
4	2649	2132	539	538
4	6192	2207	2132	2192
4	5861	69	2605	2606
4	4604	4652	4495	4506
4	5025	566	565	2622
4	4608	4609	4154	4850
4	4533	4584	4611	4600
4	4604	4609	4879	4605
4	5026	5018	2621	2607
4	5022	2230	2276	2343
4	4610	4879	4883	4878
4	6210	887	886	184
4	4580	4330	4328	4327
4	4610	4879	4604	4883
4	4652	5609	4611	4600
4	2217	4850	2332	2334
4	4635	4647	4646	4648
4	6243	2132	2104	539
4	4288	4136	5515	5216
4	5061	5219	5062	4145
4	5113	2406	2339	2343
4	5631	5852	5895	4818
4	5888	5850	5799	5134
4	6240	6239	6299	901
4	5062	4143	5919	4144
4	5216	5219	4811	5062
4	5219	4809	4811	4810
4	5219	4810	4811	5952
4	5666	4730	4811	5062
4	6243	539	540	43
4	4579	2620	2635	2621
4	4579	2634	2635	2620
4	4329	2207	2103	2104
4	5018	2607	2606	2621
4	5092	2756	3877	2757
4	6293	2735	5761	6248
4	3969	5090	3970	3979
4	3974	5173	4786	3980
4	4215	3971	4233	3970
4	4782	6200	3980	6276
4	4216	3971	3975	4784
4	3980	5440	6276	2624
4	4231	5222	4238	4906
4	4785	4235	5155	5011
4	5946	2886	6036	5508
4	5440	6241	4785	6276
4	6280	2608	66	67
4	4153	4322	4577	2223
4	5480	2634	2619	2633
4	2190	2100	2099	4609
4	4609	2217	4850	4883
4	4609	5607	6244	4605
4	6287	6236	6222	2908
4	4609	6245	4154	2123
4	4317	4325	4326	4324
4	4579	5041	2648	6209
4	2648	2634	2649	4579
4	4166	4577	4171	4169
4	6247	118	2	564
4	4173	2633	6209	2634
4	2620	5480	5018	2621
4	5036	2132	6243	2650
4	6250	914	119	900
4	4579	2620	5480	2634
4	4165	4580	5480	4579
4	4170	4167	6074	5480
4	6238	888	5120	889
4	2595	2610	6276	6241
4	6240	887	6211	888
4	6276	2609	2624	2610
4	6284	2751	5831	2747
4	5173	2624	2639	2625
4	6284	6305	6262	2751
4	6240	5794	888	6211
4	5690	4985	2422	2491
4	4167	6211	5017	4168
4	5150	2597	2612	2598
4	4904	4905	4910	2335
4	6239	5017	4167	6240
4	6276	2609	2623	2624
4	2624	2625	5173	5440
4	4127	4129	4139	4128
4	4234	4232	6305	6262
4	4146	5180	5179	5181
4	6287	586	2909	585
4	4124	5179	4135	4138
4	5146	2625	5173	2639
4	4127	4130	5179	4907
4	3969	3976	4216	3975
4	4139	4140	4126	5633
4	4140	4972	4132	4971
4	4132	5633	4971	2614
4	5441	2625	2640	2626
4	4784	4146	4141	5441
4	2536	4936	4941	5645
4	4140	4971	2628	5628
4	4127	4146	4784	4907
4	177	5057	176	5183
4	5634	2599	2613	2614
4	4185	3003	5121	4182
4	5688	2218	2142	2226
4	3855	3858	3856	4565
4	6004	2078	2142	2177
4	5063	5057	5056	893
4	5997	2617	2616	2631
4	3862	3861	3863	4904
4	4872	4771	4733	5517
4	5023	2632	2618	2617
4	6287	586	6236	2908
4	5113	2223	4153	4577
4	5180	5182	4907	5179
4	3969	3971	4216	3970
4	3972	4782	2752	6200
4	4872	4764	5516	5517
4	4235	4238	4906	4231
4	4558	5221	3882	3864
4	5760	572	184	7
4	4330	5024	4327	5026
4	4361	4187	4354	4181
4	6086	4424	4181	4425
4	4186	4187	4365	4490
4	4577	2223	2316	2339
4	4192	4179	4187	4191
4	6210	6248	184	886
4	4370	4180	4767	4428
4	5026	2636	2622	2621
4	4492	4325	4607	4493
4	4179	4187	4186	4192
4	4192	5554	5278	5366
4	3891	4803	4800	4716
4	4425	6085	4424	5898
4	5760	6248	2731	7
4	4579	2634	2649	2635
4	5471	2740	5024	2741
4	6299	914	900	915
4	5026	2622	2607	2621
4	4943	4946	4951	4945
4	4955	5455	5456	6205
4	6311	120	6248	886
4	2649	2650	5041	2635
4	5455	5789	4100	4956
4	3965	4956	6205	5988
4	4956	6279	4100	5988
4	5761	2731	2735	2736
4	6312	565	2744	2743
4	6279	6117	5991	4954
4	4027	4404	4408	4409
4	4768	3829	3830	3825
4	4033	3830	4402	4405
4	5790	3977	2183	5501
4	5792	2637	2638	2623
4	4406	4768	5376	5828
4	5975	5935	4029	6011
4	5972	5807	5975	6011
4	4232	913	898	899
4	4911	5960	5475	4526
4	5792	2623	2638	2624
4	6199	2623	569	2637
4	4027	4033	4029	4404
4	3976	2315	4908	2236
4	5440	2611	2610	2625
4	5831	2751	6262	2752
4	5975	5972	4430	5807
4	4974	907	5056	5057
4	5975	4430	4028	4888
4	5065	5068	5066	5070
4	5149	2626	2612	2611
4	4466	4467	4470	6120
4	5922	1999	5066	6125
4	5441	2626	2641	2627
4	3977	2181	6002	3976
4	4906	6031	5011	5010
4	5633	2613	2627	2628
4	5066	1990	5068	1999
4	4714	5407	1676	1681
4	5070	5068	1990	1989
4	5960	1975	6216	5475
4	4908	4907	4216	3976
4	5630	2178	2231	2143
4	2643	2078	532	2079
4	5065	4691	5490	5068
4	4691	6048	4692	4693
4	6007	5023	5742	2618
4	4785	5150	6241	5440
4	5057	5215	5055	5627
4	4691	5490	5068	4158
4	5669	2645	2631	2630
4	6000	2629	2643	2644
4	2644	2077	2078	6004
4	4470	6048	4693	4473
4	2332	2334	4850	4852
4	5070	4693	5068	1989
4	6131	6150	177	2963
4	5669	2644	2645	2630
4	1933	4257	1759	1811
4	5021	2631	2645	2646
4	5699	5183	6150	176
4	4928	5021	2632	2631
4	4258	1958	1931	4259
4	5480	2620	2619	2634
4	5996	2632	2647	2633
4	6150	4763	5196	5183
4	4794	6150	5196	2963
4	2635	4579	5041	2649
4	5022	2230	2157	2276
4	6150	4763	5699	2953
4	6191	6208	6192	2233
4	5657	4917	4913	4933
4	6191	2230	2233	2156
4	5019	2619	6074	5480
4	5041	6192	6209	4328
4	4580	5019	5480	5018
4	6135	2957	5661	4856
4	5536	4913	4854	4856
4	4912	5536	4913	4854
4	3851	5475	5960	6216
4	4427	5947	4890	6097
4	3846	5702	5960	5961
4	6311	2739	2735	120
4	5036	2104	6243	2132
4	4329	4319	2742	2103
4	4429	5637	4178	4428
4	6085	4374	6086	4430
4	4176	4178	4179	4180
4	4913	4856	4853	4854
4	5025	566	2622	2636
4	5471	2740	2741	2736
4	4914	4917	4913	4915
4	5657	5559	6114	5659
4	4182	3023	3013	182
4	4914	5842	4915	6196
4	4917	4932	5832	4918
4	5832	4932	4915	6114
4	5657	4917	4932	4915
4	4014	4257	4254	4261
4	4011	4090	4085	4091
4	408	4261	4260	4618
4	568	6199	2637	2118
4	6021	2361	2193	2209
4	6313	2759	2755	11
4	6199	569	568	2637
4	2637	2591	5792	527
4	2118	2591	2637	527
4	5790	5173	2638	2083
4	4725	6252	4901	4900
4	4700	4727	4897	4695
4	4261	4714	4618	408
4	4670	6194	6110	5482
4	5173	2638	2639	2624
4	2639	5173	5144	528
4	4251	4247	4250	5241
4	4750	4831	5557	4978
4	3969	3976	3978	4216
4	5231	5241	4251	4250
4	5441	2639	2640	2625
4	4555	3946	4565	5299
4	2640	5145	529	2639
4	4561	4558	5733	5250
4	6309	5151	6307	2598
4	5724	5145	5725	2182
4	4555	6228	4560	6018
4	2642	2079	531	2080
4	4569	6166	5596	4572
4	2641	5800	530	2640
4	3877	4234	3878	2760
4	5800	2178	2080	2081
4	5441	2640	2641	2626
4	5957	907	922	921
4	2642	2641	2080	531
4	4562	5963	5623	5925
4	5628	2642	2080	2079
4	5628	2641	5629	5800
4	4561	4560	5736	4559
4	6000	2630	2629	2644
4	2643	2642	2079	532
4	4562	4565	5963	5925
4	5766	2629	2628	2643
4	5766	2642	2643	2628
4	5621	5963	5623	6226
4	6214	2218	5186	2317
4	2644	533	2643	2078
4	5869	6124	5457	6157
4	2643	6004	6000	2644
4	5319	5320	5463	4419
4	5319	5316	4359	5650
4	2645	2644	2077	534
4	5021	2646	2632	2631
4	4965	4658	4967	5899
4	2117	5669	6256	2077
4	2646	2645	2117	535
4	5453	6124	3951	4967
4	5021	2646	2117	2157
4	4825	4403	4749	6178
4	5355	5447	5446	5386
4	6209	2633	2647	2648
4	4822	4828	4824	4825
4	4014	4015	5432	4094
4	4254	6067	4711	5695
4	2647	2646	2157	536
4	5670	2344	2419	5910
4	4098	4091	4092	5874
4	6191	2230	2156	2157
4	5996	2157	2156	2647
4	2648	2647	2156	537
4	4431	4090	4433	4089
4	6209	2634	2633	2648
4	6192	2233	2192	2156
4	4085	4310	4087	4095
4	2649	4579	5041	2648
4	2649	538	2648	2192
4	4014	4259	4088	5432
4	4328	6192	6209	4171
4	5217	4317	4329	4318
4	2650	539	2649	2132
4	4329	5036	2132	2104
4	5036	567	2746	2745
4	4095	4887	4087	5459
4	6243	2650	43	567
4	4310	4087	3850	4097
4	5036	566	567	2745
4	2746	540	2104	2742
4	4449	4086	4433	4964
4	4085	4086	4087	4089
4	4698	4834	2841	4699
4	4023	3810	4016	4021
4	6311	6248	6212	886
4	4588	2704	2703	2708
4	5675	5973	5238	5310
4	4700	4834	4698	4699
4	6024	5238	5237	5974
4	5933	2115	5825	5939
4	5238	5974	6024	5973
4	4977	4411	6176	4335
4	5087	4401	4341	4350
4	4339	5809	4397	5746
4	4154	2220	2336	2334
4	4597	2719	2724	2720
4	5036	5025	2636	566
4	5742	2619	2604	2618
4	6299	6247	6280	2608
4	5083	5089	5087	4301
4	5861	69	2606	68
4	5085	6016	4350	5084
4	6248	7	886	120
4	5198	5400	5199	5805
4	5761	2732	2727	2731
4	3823	3826	4373	4342
4	3826	5005	5378	5006
4	6311	900	120	886
4	6210	6293	5761	6248
4	5019	2620	5018	2606
4	4351	4339	4340	4397
4	4402	4749	5199	5195
4	6304	68	2607	67
4	4395	4401	4351	4397
4	5018	2606	2620	2621
4	4695	4641	4700	4727
4	4792	5428	4798	5673
4	4185	3003	3004	2993
4	4727	4726	4898	4797
4	5761	2736	2732	2731
4	4851	2406	2412	2336
4	5933	5167	5855	1638
4	6210	6248	5760	184
4	4185	3004	2994	2993
4	5825	392	5855	1650
4	6240	888	902	887
4	6040	5611	6063	4788
4	4643	4792	4637	4641
4	5743	903	889	904
4	4205	4199	5674	4998
4	4761	5942	4759	4758
4	4204	5866	6090	4205
4	4578	182	888	183
4	5491	5279	5866	3875
4	4851	2339	2406	2336
4	5774	5931	6292	3005
4	6238	889	903	888
4	5120	889	182	181
4	5895	2418	2530	2412
4	4605	2726	2730	2100
4	1668	5941	2047	1669
4	5667	181	180	890
4	2418	5910	5989	2419
4	4752	4033	3830	4402
4	5279	5491	4761	4760
4	4327	4324	5466	5024
4	6253	2603	2604	71
4	6090	5866	6217	4205
4	5825	401	32	402
4	4597	2724	2728	4506
4	6217	4199	5674	4205
4	5024	2745	4319	2741
4	5825	1650	32	392
4	6184	2501	3870	2437
4	6002	2074	2130	2181
4	5860	2604	5742	2605
4	4850	2334	4152	4852
4	3868	6094	2437	3870
4	5577	181	3003	180
4	4312	4104	4103	4316
4	6255	2602	2603	72
4	4309	5170	4098	4072
4	4077	5251	4805	4813
4	2437	3868	6184	2198
4	6005	2616	2617	2602
4	4715	4075	4719	4724
4	6253	918	71	70
4	4309	5815	4312	4072
4	4769	2414	2481	2504
4	4073	4887	4310	4316
4	6076	180	891	890
4	4309	4310	4316	4312
4	6267	2601	74	2600
4	4976	2615	2600	2614
4	5214	891	905	890
4	4311	4724	4312	5815
4	4874	2415	2416	2338
4	5697	406	1671	1666
4	5063	178	893	892
4	2504	4769	2415	2416
4	5744	2944	2943	2954
4	5620	2479	2534	2535
4	5742	2605	2604	2619
4	6141	4455	2293	5806
4	6073	904	919	918
4	6141	5806	6072	4464
4	6141	2444	2496	2435
4	5064	178	892	179
4	6141	6072	2433	2435
4	5213	892	906	891
4	5678	2983	4817	2993
4	5414	2924	2935	2925
4	6307	2598	2599	76
4	6141	2293	4455	2444
4	4874	2415	2338	2337
4	5063	178	177	893
4	4809	2341	2473	2399
4	4794	2953	2963	2964
4	5618	2479	2481	2409
4	5977	4230	2923	2924
4	6302	2341	2340	2417
4	4729	4288	5517	5519
4	6254	921	73	920
4	5639	4452	5158	5314
4	4760	3867	4766	5283
4	4757	3869	4758	3868
4	4844	4989	4756	4156
4	4844	5109	4989	4156
4	3865	3868	3869	3867
4	6309	924	925	77
4	5150	2612	2597	2611
4	3877	3880	2757	2760
4	5624	5414	4886	6227
4	4785	6213	5150	5153
4	5867	4112	5975	6173
4	3979	2758	2762	2074
4	4910	2337	2236	2335
4	2415	4874	2335	2337
4	2917	6108	2927	2916
4	5620	2534	2479	2480
4	4905	2333	2414	2415
4	4989	6151	4987	4988
4	4970	6005	2616	5997
4	4989	4844	4756	4987
4	5694	894	908	893
4	6266	6126	6032	2933
4	5699	2953	2943	175
4	6140	5336	4991	3866
4	6030	897	174	173
4	4447	6034	6033	6260
4	5149	5633	2613	2627
4	6030	5011	6031	5010
4	5880	78	2596	2597
4	5633	2614	2613	2628
4	4905	2415	2335	2333
4	5998	2218	5186	2226
4	6030	5010	174	896
4	6241	2610	2611	2596
4	5254	6260	4390	5258
4	5628	2080	5630	2143
4	6158	6259	5835	5256
4	5792	5091	6199	6200
4	4135	4764	4125	4123
4	5149	2625	2626	2611
4	5627	176	175	895
4	6308	2595	2596	79
4	4784	5146	5145	5441
4	4910	2335	2236	2216
4	5114	4100	4447	6033
4	6288	571	570	2609
4	6130	174	896	175
4	5979	4230	2913	2923
4	4236	899	172	171
4	5155	898	912	897
4	5927	924	909	910
4	4131	896	910	895
4	5142	5840	6054	5118
4	4447	6260	6033	4101
4	4099	5254	4447	4390
4	5042	5043	5698	5054
4	5962	6002	2074	2130
4	6200	2752	2749	2748
4	5042	5050	5047	5053
4	5482	4672	5047	5509
4	4217	4231	4233	4235
4	5047	6068	5482	5509
4	4232	898	913	912
4	5695	5697	4618	4004
4	4238	898	897	173
4	5044	5053	5508	5045
4	5046	4676	5245	5128
4	6261	2595	5856	6308
4	5880	5153	6309	5150
4	5092	2757	2753	2756
4	5125	6044	4676	5130
4	5666	4730	5062	5919
4	4669	4629	4672	5482
4	4627	4676	6044	6043
4	4630	4626	4628	4625
4	3855	4565	3945	3858
4	4391	3028	3018	3017
4	5880	6241	5150	2597
4	6261	5831	6284	5856
4	4627	4676	6043	6042
4	2609	6276	2595	2610
4	4236	899	898	172
4	6184	2198	3868	3866
4	6284	116	2751	2747
4	4238	172	898	173
4	2076	5501	2075	2754
4	4237	4238	2913	172
4	4174	3020	3031	3021
4	5051	4676	5046	4675
4	4174	3030	3031	3020
4	3865	3874	6184	3871
4	5041	4330	4328	4579
4	4166	4167	4580	5017
4	4606	4609	4605	5607
4	6262	2751	2755	2752
4	3944	518	2069	2070
4	6313	171	115	899
4	5623	5621	5925	5963
4	4604	4652	4584	4495
4	3972	2757	5092	3970
4	6108	6222	2917	2918
4	4321	4153	4322	4577
4	4608	4323	4609	4325
4	4609	2100	2099	4879
4	4608	4849	4457	4494
4	4844	5109	4156	4846
4	4844	4845	5107	5108
4	4989	4987	6151	5108
4	5359	4988	4987	6151
4	6284	913	117	927
4	5995	5859	4926	5016
4	6256	5016	4926	5669
4	5218	5186	5060	5220
4	5831	2747	2751	2748
4	5016	5859	4926	4927
4	6311	900	119	120
4	5218	4927	5859	5670
4	5137	5578	4931	5667
4	5224	5234	4773	4486
4	4773	4480	4481	4487
4	5224	5234	5232	4773
4	4487	4486	4488	5883
4	5131	4253	4958	5125
4	3871	5336	2497	3866
4	5026	2607	2622	2608
4	5024	2740	2744	2745
4	5129	5812	4627	4958
4	5129	4627	5812	4916
4	5125	5131	5126	5130
4	6240	887	902	901
4	6239	902	916	901
4	6238	888	903	902
4	4247	4523	5241	4251
4	4775	4777	5234	4773
4	5692	5232	4773	5225
4	5503	2048	5511	5505
4	4773	5225	5232	5224
4	6075	918	903	904
4	5743	889	890	904
4	5232	4773	5234	5692
4	4971	6000	4970	2629
4	5234	5692	4773	4777
4	4288	5519	2340	5518
4	6006	906	920	905
4	5233	5763	5691	5692
4	5233	5565	5033	4542
4	6073	905	919	904
4	6075	6253	918	6073
4	3932	4675	4674	3936
4	5051	5043	5046	5245
4	4671	4958	4627	4676
4	5214	904	6073	5743
4	5056	907	906	892
4	5179	5518	4137	5181
4	5050	5478	5481	5946
4	5957	908	922	907
4	4763	5699	5215	5183
4	4669	4626	4670	4044
4	4162	5526	6127	4084
4	4162	6127	4662	4161
4	4504	4079	4083	4067
4	5339	6042	4039	5326
4	5957	908	5694	909
4	5694	894	895	909
4	5863	3878	6313	2759
4	5339	3936	6163	5351
4	4825	6178	4749	4823
4	5156	4131	4128	5010
4	4749	4403	4836	5399
4	4028	5972	4029	4407
4	5928	4132	4976	2614
4	5153	911	925	910
4	5156	5153	910	911
4	5156	896	897	911
4	5199	5805	5006	5198
4	6213	912	926	911
4	4770	5517	4771	4769
4	4404	4752	4407	5391
4	5005	5199	5378	5006
4	3888	5027	5028	4677
4	5027	5031	5032	1631
4	5027	4677	5030	2113
4	5027	2112	5030	5031
4	5856	913	927	912
4	3974	3973	5790	3977
4	4009	4013	5695	4010
4	6284	116	117	913
4	6261	6308	79	2595
4	6284	116	6305	2751
4	4858	4780	4241	5690
4	4014	4254	4258	4256
4	4014	4254	4257	4258
4	407	406	5696	4013
4	4243	4982	5112	5262
4	5452	3967	3950	3968
4	6299	6250	900	914
4	6247	914	66	118
4	4965	4661	5899	5012
4	5103	2692	5141	3958
4	6280	6304	6239	5018
4	6280	914	67	66
4	6250	119	914	118
4	5141	3958	3956	5103
4	5141	3956	2693	5147
4	3961	2689	3956	6083
4	3956	2689	3958	2693
4	6055	6102	6054	4441
4	4402	5378	5195	5199
4	2459	2513	6161	6025
4	6299	900	901	915
4	4889	5827	6297	6025
4	6304	5018	2607	2606
4	6304	915	916	68
4	5191	5197	5195	5384
4	4700	4829	4823	5785
4	6239	916	915	901
4	4838	4829	5750	4403
4	5751	4411	4977	4838
4	6238	5743	889	5120
4	5861	916	917	69
4	5021	2117	2646	2645
4	6238	6075	917	903
4	4034	5827	4031	6025
4	4035	5751	4034	6161
4	4028	4890	4427	4768
4	5851	4112	5866	5867
4	6075	918	917	903
4	6253	918	919	71
4	6255	2602	6254	6005
4	5860	918	70	917
4	4888	4030	5975	5867
4	5219	6242	5220	4809
4	6255	919	920	72
4	4974	921	5957	6267
4	4033	4406	4035	4034
4	5898	3830	4768	3829
4	4427	4768	4428	4424
4	6254	6005	2602	2601
4	6006	905	920	919
4	4975	907	921	906
4	4975	6267	6254	921
4	5827	6297	6025	2513
4	4405	3825	3830	5378
4	6267	2600	4976	2601
4	6267	921	922	74
4	4767	3825	4768	5947
4	3806	5247	5906	5907
4	5694	6130	4123	4131
4	5957	6310	6267	922
4	6310	923	75	922
4	5634	2599	6307	2598
4	4792	4796	5427	4640
4	5957	923	922	908
4	6309	6307	76	2598
4	4792	4640	4799	4639
4	5927	909	924	923
4	5153	924	910	925
4	3885	4681	4499	4678
4	5404	3846	4911	5961
4	4333	4031	5826	5827
4	5880	925	6309	5153
4	5880	6213	6308	926
4	5880	925	926	78
4	4034	6161	5827	6025
4	4499	5485	5389	5404
4	6309	2598	77	2597
4	6213	5153	911	925
4	4746	6183	4742	5432
4	4517	4437	4449	5172
4	6308	6241	2596	2595
4	5856	6308	926	927
4	6261	117	2747	571
4	4864	4859	4860	4862
4	4859	4863	4861	4867
4	5870	4307	4305	4821
4	4088	4261	4260	5819
4	4014	4015	4256	4258
4	4014	4013	4088	4260
4	5815	4753	4097	4311
4	3848	3844	3852	4311
4	6284	927	5856	913
4	6226	5621	5963	2328
4	5200	5318	5194	5317
4	4700	4695	4897	4829
4	6261	927	117	3
4	3994	5680	1701	435
4	5188	5397	5400	5496
4	4750	4829	4978	4403
4	6069	5205	4594	5201
4	6012	434	1693	1697
4	3991	6134	6070	5713
4	4822	4834	5594	6229
4	3819	2652	2657	2653
4	6012	2653	434	2652
4	5200	5317	5306	5307
4	5791	6027	6012	1693
4	5791	6012	433	1693
4	6027	1697	1692	1696
4	5682	1700	1718	1701
4	5681	5680	3994	2651
4	5381	4832	4828	6093
4	4832	4831	6249	5616
4	4844	5107	4843	4987
4	4825	4829	6178	4823
4	5191	4751	5558	5830
4	5201	5711	5157	5202
4	4595	1806	5201	5202
4	6138	2919	6231	2918
4	5791	1689	1693	433
4	6014	563	2194	2108
4	2655	2656	5686	5681
4	5902	3981	3814	3982
4	3818	2661	2656	2660
4	5853	5205	5201	5157
4	4592	2659	2660	2655
4	4234	6305	6313	2755
4	5681	2655	2651	440
4	3937	6047	4799	3942
4	2656	2651	5681	2655
4	5685	1875	1807	1833
4	5686	2656	2655	2660
4	3822	5685	5683	5684
4	4639	5564	5429	4640
4	4639	5564	3948	5429
4	3896	1785	1974	1816
4	3819	2656	2657	2652
4	5092	6262	4234	2756
4	3806	3809	3808	4637
4	2658	2194	2654	562
4	6028	2658	2654	2653
4	3920	3923	3924	2670
4	3988	2665	2661	2660
4	3805	3809	5969	3808
4	4792	5428	4727	4798
4	6070	6071	5713	2119
4	2658	561	2662	5713
4	6028	2657	2658	2653
4	6070	6021	2361	5439
4	5528	4343	4059	5530
4	4283	4060	4059	4539
4	2659	2655	1754	441
4	4271	3997	5764	5714
4	2663	1752	443	1753
4	2665	3988	3921	2664
4	4595	1754	1807	1753
4	4204	6064	6013	4198
4	5713	2661	2662	2657
4	4004	4003	3995	4007
4	4806	4842	3897	4804
4	5713	2657	2662	2658
4	3923	2086	2145	2085
4	2670	558	2086	559
4	3990	2358	5439	2280
4	4451	5359	4464	4988
4	561	2119	5713	2658
4	3985	3982	1691	1695
4	3989	2661	2666	2662
4	3897	5167	1647	1643
4	4679	389	3886	5028
4	4679	1617	5184	390
4	3886	3890	389	1647
4	3988	2664	2665	2660
4	1753	4595	442	2663
4	4844	4651	4845	5108
4	3928	2268	2277	2145
4	5901	346	345	1570
4	4758	4757	3868	420
4	3989	2665	2666	2661
4	5959	5915	4680	3844
4	3889	5029	5252	5745
4	4801	4802	3887	3891
4	5201	1720	5711	1767
4	4304	4962	4650	4961
4	3967	3968	6061	3960
4	3962	2680	6301	2684
4	5161	5316	5315	5314
4	3924	2665	2670	2666
4	4651	4845	5108	2197
4	4090	4092	4867	5870
4	2666	2662	560	2084
4	3990	2358	3992	5439
4	3914	3915	3928	3923
4	4449	5885	5172	4746
4	5875	2671	2676	2672
4	5009	2087	557	2088
4	5009	2172	2137	2087
4	5160	2668	2673	2669
4	2063	4113	6257	4116
4	4432	5874	4092	5870
4	4812	4809	4811	4729
4	3920	2669	2674	2670
4	2145	3928	3923	2085
4	4234	6313	3878	2759
4	3921	2668	2669	2664
4	6149	6144	2803	2804
4	5204	5205	1822	5040
4	2670	2085	2666	559
4	5216	4136	5515	5060
4	6265	6077	1568	1582
4	3924	2669	2670	2665
4	4144	4142	5064	4145
4	5202	6058	5203	2667
4	5706	2672	2668	2667
4	5711	346	1767	1720
4	4145	4142	5064	6076
4	5013	2681	6061	2682
4	4969	4925	4929	4970
4	5706	2671	2672	2667
4	5014	2251	2173	2248
4	3992	2211	5439	2358
4	5160	2672	2673	2668
4	5008	2251	2257	2172
4	3920	2673	2674	2669
4	5058	4731	5183	5062
4	5058	4144	5062	5183
4	4234	2759	3878	2760
4	5008	5740	4656	2251
4	6199	569	6306	2749
4	5944	2311	2245	2313
4	5196	4730	4731	4732
4	5215	5183	4731	4732
4	5900	347	1569	1568
4	5183	4763	4732	5215
4	2086	3923	558	2670
4	5833	2673	2678	2674
4	6314	2679	2680	2675
4	3814	3822	4737	4738
4	6301	2684	2680	2679
4	5158	5157	5161	3922
4	3983	4843	3816	3984
4	6084	347	1568	21
4	4452	5313	5639	3984
4	4965	4661	4655	4657
4	1696	3982	6027	4737
4	5012	2676	2681	2677
4	3962	6301	3959	2684
4	3811	3818	3819	5686
4	3822	4737	4738	5682
4	5833	2677	2678	2673
4	5792	2624	3980	6276
4	1696	1701	1700	4737
4	5790	527	2638	5792
4	3951	6099	6124	5457
4	4737	1701	1700	5682
4	5202	1767	6058	1752
4	6131	177	6150	5183
4	5160	5706	5875	2672
4	2087	5009	557	2674
4	5013	2677	2682	2678
4	6061	2686	2089	2682
4	3922	3921	4598	5157
4	3894	3986	5037	5040
4	3983	4843	3984	3986
4	5639	5204	4599	3986
4	5158	3917	4456	4452
4	4599	4598	5158	3993
4	2692	2688	3959	2687
4	6077	2675	293	2679
4	5639	5158	4599	5205
4	5992	3963	234	235
4	5162	5165	3902	5419
4	5162	4895	5419	3902
4	3898	3904	3901	3902
4	6060	2091	2139	2090
4	3901	5721	3912	3906
4	6060	554	2091	2090
4	6273	2679	294	2683
4	5944	2313	2394	2311
4	378	1993	3902	3901
4	6314	2679	6301	2680
4	4048	4304	4302	4962
4	6306	6199	6200	2623
4	4896	1993	3902	5165
4	5013	2678	2682	2088
4	6171	3953	6172	1583
4	5720	2680	2681	2676
4	5008	2172	5009	5014
4	2682	2088	2678	556
4	6238	6074	4167	5019
4	6061	2681	2686	2682
4	5147	2698	2092	2694
4	4167	4923	4170	6074
4	5013	2681	2682	2677
4	6273	295	2683	294
4	4922	4171	5996	5022
4	6199	569	2749	568
4	6199	2750	568	2749
4	4183	5786	4848	5799
4	4457	4494	4578	4493
4	4317	4324	4327	4319
4	4327	4580	5026	5466
4	5944	2313	2396	2394
4	4152	4458	4608	4849
4	4457	4168	4578	5632
4	6102	2245	2139	2174
4	6051	2054	4642	2053
4	5203	2663	2668	2664
4	4326	4168	5017	6211
4	3962	2684	2685	2680
4	6061	2685	2686	2681
4	6131	4412	2973	5919
4	2686	2089	6060	6061
4	5879	5664	5678	5919
4	5879	5919	5678	4817
4	3952	3953	6171	6123
4	2686	6061	2690	2685
4	6131	4412	2963	2973
4	4412	5196	5665	5664
4	2686	2089	2682	555
4	3960	5720	3962	2685
4	4794	4412	5665	2964
4	4794	4412	2964	2963
4	4048	4207	4208	4210
4	5176	5175	5485	5390
4	6079	17	2687	295
4	5944	2313	2245	2243
4	5857	4645	4660	4591
4	2313	5122	5124	2314
4	5174	5177	3899	5390
4	3848	4753	3850	3849
4	5488	5813	5487	5920
4	3910	3911	4683	5917
4	4180	5636	5718	5843
4	3841	3854	3847	3843
4	6054	2174	2243	2245
4	6157	1585	1599	1584
4	3925	2696	2692	2691
4	3959	2683	2687	2688
4	5141	5142	3956	5147
4	3854	4649	4683	3911
4	3958	2688	2689	2684
4	3908	4209	4212	4206
4	6101	2091	553	2092
4	6101	2092	2174	2091
4	6083	2694	2690	2689
4	2090	6060	554	2686
4	4093	6107	3031	3041
4	5917	4687	5911	4649
4	4068	4689	3836	4082
4	3961	2689	2690	2685
4	3953	1583	1598	1597
4	3839	4689	3840	6162
4	3926	581	2691	17
4	3873	581	2695	2691
4	4081	4162	4080	4164
4	6062	1596	231	230
4	4664	4666	4667	2701
4	3958	2693	2689	2688
4	5115	2314	2241	2319
4	4966	5740	4656	5008
4	6034	3021	3022	3011
4	5069	5322	4472	5066
4	4688	4508	4159	4689
4	4688	4508	4689	4510
4	4159	5235	5489	4164
4	4917	4918	4919	4932
4	5617	5532	4914	4909
4	5122	2241	2314	2243
4	5617	5622	4914	5576
4	4914	4918	4917	5832
4	4913	4920	4933	4917
4	5438	2092	2140	2174
4	5100	4830	6111	4448
4	5657	4913	5658	5661
4	6079	1596	6062	230
4	4099	6193	5124	5115
4	6054	5454	4441	2246
4	553	2091	6083	2690
4	2698	2092	552	2093
4	5147	2698	2694	2693
4	4914	4853	4918	5626
4	4668	4002	5117	4667
4	6051	2053	5882	2169
4	4811	4810	4941	5952
4	5303	5305	2235	2221
4	5850	5292	5545	5544
4	5799	5134	5850	5544
4	4183	4849	4848	4583
4	5838	4818	5219	5952
4	4287	2699	2695	580
4	5858	2699	2704	2700
4	5651	3008	3009	2998
4	5143	3873	4093	4287
4	5852	4816	4143	4818
4	5711	5900	5159	5706
4	3914	3916	3922	3917
4	3817	3815	4593	4598
4	5161	5158	3917	4456
4	5437	2095	2187	2175
4	5161	3917	3913	4456
4	4631	2187	2131	2221
4	4631	2131	2187	2096
4	4723	6040	4788	5610
4	5143	2691	2695	2696
4	5141	2692	2696	2697
4	2698	2092	2694	552
4	6271	2094	2141	2093
4	2702	550	2094	551
4	2169	5882	6051	2270
4	5205	5157	5161	5158
4	5171	2715	2711	576
4	3950	3967	3951	3952
4	5456	6205	6033	6275
4	3951	5456	6035	5457
4	4645	579	2703	2699
4	4547	5609	4600	4611
4	4287	579	2699	580
4	5839	5124	5114	5789
4	5455	4100	6033	6205
4	5481	3929	3835	3932
4	4512	4527	4530	4467
4	4044	3936	4674	4673
4	2706	2094	550	2095
4	5956	2094	2175	2141
4	5490	4662	6113	4158
4	5489	6037	4164	6155
4	5858	2695	2699	2700
4	2722	545	2099	546
4	4513	4527	5521	4037
4	4041	6155	4164	6037
4	4666	2701	2706	2702
4	4446	4174	5140	4830
4	4668	2700	2701	2696
4	5249	3864	4562	3863
4	3964	3012	3002	3001
4	2702	2093	2698	551
4	4230	2924	5977	5250
4	3950	3968	3961	3956
4	4667	2701	2702	2697
4	5250	5837	5734	2914
4	5994	2098	2189	2179
4	2996	4708	3007	3006
4	4557	5250	6264	6263
4	4631	2221	2131	2215
4	4645	579	578	2703
4	4557	6264	6295	2771
4	5707	5708	1574	5367
4	5707	5386	5708	5367
4	5355	4276	5527	5367
4	5708	1587	5709	1573
4	4585	2704	2709	2705
4	4732	5196	4763	5183
4	5355	5708	5993	5982
4	6286	1587	5708	1588
4	4027	4410	4030	4032
4	4027	4835	4035	4404
4	4408	4410	5392	4109
4	4587	2705	2710	2706
4	4666	2702	2706	2094
4	4035	4835	4411	4838
4	4664	2704	2705	2700
4	4634	2714	2096	2710
4	5871	2325	2215	4548
4	2706	2094	2702	550
4	5428	4899	4898	4897
4	4648	4506	4878	2721
4	4666	2705	2706	2701
4	5655	4978	5392	5656
4	4027	4835	4409	4411
4	4099	6193	5260	4102
4	4100	6193	4102	6303
4	5839	5840	5118	5944
4	4099	4101	4447	4100
4	2215	5871	4553	2221
4	4646	2237	2215	2179
4	4826	577	2707	578
4	4956	5789	4100	6279
4	4955	5457	4946	4944
4	6033	6205	4100	4101
4	4413	4421	4415	4416
4	4658	5899	5901	6171
4	6066	2566	2567	2568
4	6051	4696	2054	2128
4	4587	2709	2710	2705
4	3916	5159	5160	5157
4	4379	4264	5567	4343
4	6017	5342	5601	4117
4	4883	4878	4879	2099
4	4587	2706	2710	2095
4	4585	2708	2709	2704
4	4666	2094	2706	2095
4	6051	4642	2054	4694
4	6017	5601	5342	6146
4	2710	2095	2706	549
4	4634	2709	2714	2710
4	4883	2217	2238	2190
4	5342	5406	5371	5370
4	4589	2712	2713	2708
4	4344	5776	4265	4368
4	4122	5601	4294	6144
4	4117	5371	5410	4294
4	4395	4351	4383	4397
4	5007	2707	577	2711
4	4643	5882	6051	4644
4	2512	2559	2556	5349
4	4883	2190	2189	2099
4	5774	3015	3016	3005
4	4119	6285	4120	5531
4	4114	4119	4116	6285
4	4114	5406	4120	6285
4	4028	4029	5975	4030
4	4021	4017	4023	5244
4	4027	4409	4410	4411
4	6217	5866	4410	4032
4	5771	4602	4393	5774
4	5229	2715	2720	2716
4	4977	4032	4411	4335
4	4634	2713	2714	2709
4	5973	5974	6024	4410
4	4410	6291	6217	5973
4	4550	5303	5301	5437
4	4548	2237	4612	4546
4	4027	4410	4032	4411
4	5866	4410	4112	6291
4	5823	2400	5300	2402
4	2714	2096	2710	548
4	4635	2713	2718	2714
4	5298	3878	2763	2764
4	4032	5310	4410	6217
4	5138	5796	5132	5989
4	5270	575	2719	2715
4	5059	3026	3036	3037
4	5396	2716	2721	2717
4	5218	5061	5060	4973
4	5137	5631	4818	4816
4	2726	545	2100	2099
4	5171	575	2715	576
4	4815	4143	4142	4817
4	5058	5061	4144	5064
4	4143	4145	4144	5062
4	5218	4927	5138	4931
4	5137	4145	4931	5578
4	4182	3023	182	183
4	4555	4562	4563	4559
4	3946	6228	4555	4564
4	5171	4894	5007	2711
4	4635	2717	2718	2713
4	4563	4565	3946	5964
4	5459	5402	1896	5985
4	4000	5301	5302	5303
4	4631	2096	4634	2097
4	4565	3858	5299	3946
4	4589	2716	2717	2712
4	4548	2325	4546	5871
4	5788	3028	4660	3029
4	3856	3883	3857	3882
4	2718	2097	2714	547
4	4878	2717	2722	2718
4	5459	5458	1917	1896
4	4555	6228	5299	4556
4	4653	3025	3036	3026
4	5228	5043	5077	5246
4	4604	4648	4610	4531
4	5267	5693	5104	5225
4	5760	572	3033	184
4	5227	5131	5228	5226
4	5077	5075	5078	6098
4	5075	5078	1744	5071
4	5077	5043	6098	5246
4	5755	5693	5104	5756
4	4177	4424	4370	4425
4	4186	4179	4176	4181
4	5259	4702	5424	5255
4	4878	2721	2722	2717
4	4453	4452	4451	5314
4	4497	4426	4459	5334
4	4883	2217	4532	2238
4	5459	5460	1897	1917
4	5026	5025	6312	2622
4	4492	4495	4493	4597
4	5229	4597	2720	2719
4	4357	5949	5700	4361
4	2722	2098	2718	546
4	4878	2098	2722	2099
4	4532	2330	2332	5134
4	6290	5132	4851	5796
4	4179	5334	4426	4497
4	4189	4180	4371	4370
4	5337	3035	3025	3024
4	2733	5607	4606	2729
4	4583	4184	6292	5787
4	5332	4178	4429	5637
4	5332	5334	4462	4426
4	3805	4021	3807	6052
4	6298	3023	3024	3013
4	5780	6315	6283	2912
4	1786	4259	5986	4261
4	4858	4985	4019	4780
4	4506	2724	2725	2720
4	4016	4018	4026	4023
4	5747	6298	3014	4184
4	6210	183	887	184
4	4272	4023	4018	4017
4	4322	2155	5217	2223
4	4850	4532	4582	4883
4	4269	4273	4286	4271
4	3844	5915	4075	5959
4	4680	3844	3843	4755
4	3893	4071	3846	3851
4	4879	2726	2722	2721
4	1897	5978	4259	5459
4	4075	4724	5677	5959
4	2726	2099	2722	545
4	544	6244	2730	2100
4	4605	2729	2730	2725
4	5677	4075	3844	4311
4	6251	5024	2744	5026
4	5062	4144	5196	5183
4	3848	4755	3844	5677
4	5995	2157	2117	2276
4	3852	4073	3893	4074
4	3841	3844	3848	3843
4	3850	4821	3849	4753
4	4671	4628	4251	4672
4	4094	4436	4860	4437
4	4252	4745	5129	4748
4	4628	4958	4251	4249
4	4744	5127	4253	4246
4	5127	5125	4253	4246
4	6168	2281	5715	2292
4	5125	5131	5128	4958
4	4251	6296	5241	5239
4	6212	886	901	900
4	5046	5482	4669	4672
4	6245	2191	2123	2101
4	4493	2727	6300	5761
4	4308	5890	6168	5715
4	4246	5125	4253	5131
4	2729	4506	4492	2728
4	2405	2476	5592	6185
4	6244	544	543	2101
4	4859	4090	4438	4436
4	2730	2100	2726	544
4	5538	5537	6292	4601
4	5771	4600	5609	4393
4	5796	2412	5895	2483
4	4708	4393	5774	4709
4	5539	5538	5544	4533
4	4318	2155	2191	2102
4	4702	6088	5255	5652
4	4600	4584	4603	4601
4	4318	2155	2102	2103
4	6280	6304	5018	2607
4	6293	2740	2735	2739
4	4154	2334	4850	2220
4	4597	5612	2727	2723
4	5544	5134	5850	5642
4	6293	2740	2736	2735
4	5026	6312	2608	2622
4	6312	564	565	2743
4	5422	5260	5424	5823
4	5422	5426	5421	5955
4	4329	2746	2104	2742
4	6312	2608	2622	565
4	6311	2739	6293	2735
4	4580	2635	4330	5026
4	4099	5115	5304	5260
4	5253	5258	4390	4389
4	4318	2102	542	2103
4	5253	4390	5259	4389
4	6168	2281	4477	5163
4	4319	2742	2103	2738
4	4319	2742	2738	2737
4	5026	2635	2636	2621
4	5256	4706	5652	6088
4	4320	2737	2738	2733
4	5141	4668	5147	2697
4	4099	5260	5304	5254
4	5470	4624	4443	4201
4	6250	6247	118	914
4	4201	5206	4443	5470
4	5579	5991	5988	4102
4	6299	6247	6250	914
4	5206	4443	4444	4201
4	6219	5212	4443	4284
4	4328	4329	5041	6208
4	4320	2733	2738	2734
4	2742	2103	2738	541
4	5113	4851	2339	2406
4	6209	2156	2648	2647
4	6212	887	901	886
4	6181	4443	6219	6218
4	5024	2745	5036	4319
4	6114	5842	6186	4915
4	5657	4915	4913	4917
4	4575	4868	4573	4566
4	4171	5113	4169	4577
4	5995	2276	2213	2344
4	6243	2746	567	43
4	5036	2636	2650	567
4	4319	2741	2742	2737
4	5470	5562	5560	4624
4	5561	5661	6135	6136
4	5019	2605	2619	2620
4	2997	4708	3007	2996
4	6250	2743	2739	119
4	6251	2744	2740	2739
4	2132	5041	4329	2207
4	5657	4913	5661	4933
4	4921	6007	5742	6073
4	6251	2743	2744	2739
4	5024	2745	2741	2740
4	5470	6010	5560	5559
4	4569	4570	6166	4572
4	5725	3976	2236	2315
4	4317	4321	4322	5217
4	6238	902	917	916
4	4319	2741	2746	2742
4	4973	6000	4926	4930
4	5595	4572	5585	4576
4	6167	5622	5832	4918
4	5036	4319	2745	2746
4	2510	2458	5654	5653
4	5913	4497	4191	5444
4	6243	43	2650	539
4	5622	6226	4559	6230
4	6084	293	2675	21
4	5657	5585	6114	4932
4	6079	295	2687	2683
4	6314	2675	2680	2676
4	4538	4060	4058	4536
4	6301	2683	2684	2679
4	6186	6289	6114	5589
4	4914	5841	5622	5832
4	5357	5468	5993	5523
4	4914	4917	4915	5832
4	4078	4163	4082	4501
4	5943	2394	2463	2389
4	4420	2304	2386	2376
4	5759	1572	1586	1571
4	6038	2389	2462	2388
4	4078	4502	4079	4505
4	6269	234	3963	3002
4	4951	2455	2462	2511
4	2897	4502	4079	3832
4	6118	6023	4952	4951
4	5013	2088	2682	2089
4	3957	6172	6062	6301
4	5647	1571	1585	1570
4	4078	3838	3839	4082
4	5707	341	1574	342
4	5116	5124	5123	5115
4	5647	1585	1584	1570
4	4951	2511	2462	2514
4	3838	4064	4065	2893
4	4951	2514	2462	2463
4	3833	3838	3832	2893
4	3835	4066	3934	4064
4	5912	5913	2582	2578
4	6023	2557	2553	2511
4	5709	1572	1587	1586
4	4831	6252	4899	4725
4	5380	2201	2202	2286
4	6131	4144	5196	5919
4	5834	1766	5897	5328
4	5803	341	1575	1574
4	6249	5616	4831	4900
4	4364	1714	4365	342
4	5708	1574	1588	1573
4	4694	4696	4700	4699
4	4538	4536	239	238
4	5527	1576	1590	1575
4	4278	2508	2509	2451
4	5367	1575	1589	1574
4	5190	5188	6225	5397
4	4186	6081	5897	5804
4	4665	5436	4586	4585
4	4891	2451	2509	2453
4	5809	2508	2452	2510
4	4550	5301	4586	4587
4	4550	4647	5395	4551
4	4585	4665	4666	4587
4	4291	2825	2826	2822
4	6112	1864	6011	1865
4	4279	2452	2451	2378
4	5847	1577	1591	1576
4	4349	338	1578	1577
4	4665	4587	5301	5437
4	4400	2297	2378	2295
4	5098	2385	2378	2297
4	4687	5911	4214	1812
4	5221	5977	3882	5222
4	5095	2254	2269	2295
4	5933	5939	5825	5855
4	5911	4649	3911	5917
4	4117	5342	5601	4122
4	5797	2136	2269	2185
4	5726	335	1725	334
4	5098	2274	2297	2269
4	4918	6227	5626	4920
4	6166	5832	5596	4932
4	5735	4560	6109	5849
4	6137	4576	6201	4572
4	5606	1593	1607	1592
4	6232	297	1581	298
4	5769	242	241	1607
4	5154	4220	2798	2794
4	4395	4397	4396	4401
4	5832	6167	4918	4932
4	6277	1595	296	1609
4	5736	5622	4918	5626
4	6142	2234	2151	2222
4	4569	5596	5608	4573
4	5626	6227	4918	5737
4	5792	2637	5501	2591
4	3974	3977	5501	5090
4	3969	3977	3974	5090
4	5790	2183	5144	2083
4	6080	2440	2366	2203
4	4617	2043	1666	1667
4	6149	2807	2808	2804
4	5790	2183	3977	3973
4	5253	5254	5260	4390
4	6077	1568	1582	293
4	6171	1570	1584	1569
4	5759	5709	1572	5758
4	6172	1583	1597	1582
4	3962	2689	2685	2684
4	5003	5198	5089	5005
4	5834	5328	5556	4347
4	5943	2396	2467	2394
4	5897	5804	6081	1715
4	4282	5210	5567	5604
4	4340	5271	4892	5553
4	5398	4276	5773	5847
4	5271	4276	5278	5366
4	6099	1598	232	1597
4	5553	5556	4340	5398
4	4382	4240	4063	4275
4	5868	5869	6269	233
4	4533	5544	5642	5134
4	4657	5648	4658	4659
4	5124	2314	2397	2396
4	6156	1585	5759	1586
4	5540	5542	4787	4789
4	5540	5537	5543	5611
4	6119	2517	2514	2463
4	3958	2692	5141	2693
4	6119	2517	2463	2467
4	4656	2304	2299	2257
4	5117	5438	6271	5123
4	4649	4687	5911	4214
4	5869	1599	233	1598
4	2557	2553	5450	6023
4	5465	6157	5462	5759
4	5443	5277	2587	2552
4	5276	2553	2557	2556
4	4550	4647	4635	4634
4	4554	4709	4549	4547
4	5062	5196	4144	5919
4	5784	6115	5940	3963
4	1600	6156	1601	1586
4	4538	2972	5469	237
4	4652	4600	4611	4584
4	5276	2556	2557	2559
4	4058	4539	4538	4536
4	5084	4348	4341	5798
4	5445	5276	5450	5705
4	5276	2553	2556	2554
4	4891	2453	2509	2512
4	4540	1606	1591	1592
4	5396	5110	5229	2716
4	4274	1591	1605	1590
4	4550	5436	5395	4586
4	5395	5059	4391	4392
4	3966	5987	5579	4445
4	5846	1592	1591	1577
4	5847	1576	1591	1590
4	4279	2378	2451	2380
4	5436	4551	5395	5772
4	5610	5611	5543	4702
4	4280	2380	2453	2384
4	5568	2384	2461	2391
4	4663	1994	6160	6153
4	4809	6302	4812	4942
4	5731	4400	4280	2380
4	4869	5781	5780	5602
4	5498	2214	5496	2351
4	4611	4551	4547	5609
4	4534	5799	5134	4852
4	4652	4506	4648	5396
4	6278	2811	2812	2808
4	6148	6316	243	1609
4	5780	6283	5781	2911
4	4654	4648	4652	5609
4	4115	2806	2062	2063
4	5606	1607	1606	1592
4	6065	1580	1595	1594
4	6277	4465	6233	6278
4	4652	4600	4584	4603
4	4587	2709	4586	4634
4	5605	241	240	1606
4	6277	2811	2807	297
4	4647	4635	4634	2713
4	6294	2904	6264	2905
4	4550	4551	4548	4646
4	4848	4494	4608	4582
4	5156	5153	4128	4131
4	6273	1582	1596	294
4	5868	232	6099	5869
4	6030	5156	5011	5010
4	3958	2692	2693	2688
4	5156	896	4131	5010
4	4415	4416	6038	4414
4	5155	897	4235	898
4	4654	4647	5395	5110
4	5720	2681	6061	5013
4	6259	3020	6260	5258
4	3971	4783	4217	4233
4	4000	5303	5305	5300
4	5440	2625	5173	5146
4	6157	1584	1599	1598
4	4785	5156	4128	5011
4	4393	3017	6087	4706
4	5156	897	5155	911
4	5156	911	5155	5153
4	3876	3883	3857	5298
4	3926	3959	6079	2687
4	3876	4231	3881	4233
4	3953	1598	1583	1584
4	3880	2760	3876	2764
4	6099	1597	232	231
4	5141	2697	5147	2693
4	6314	2675	6077	2679
4	3880	2764	5298	2765
4	5707	5386	5447	5708
4	3860	2765	5264	5298
4	5788	3028	3029	3018
4	4666	4665	4667	5956
4	3925	2687	3926	2691
4	3876	3879	3970	3880
4	5881	2895	4504	1794
4	5881	4083	4504	4079
4	6117	2517	2561	2514
4	5433	236	1602	237
4	3970	3880	3979	2757
4	2757	2760	3880	2761
4	5912	2584	5334	2578
4	4442	6268	6115	5469
4	4538	238	2962	237
4	5446	6023	5449	4414
4	4951	4957	2462	6038
4	5396	5229	4506	2720
4	5191	6092	5383	5558
4	2556	5349	5344	2512
4	5433	1602	1603	237
4	5605	1606	240	1605
4	4506	4878	2721	4879
4	4536	1605	239	1604
4	5349	2512	2559	2515
4	4604	4584	4582	4495
4	4062	2512	2515	2461
4	4381	2310	2244	2247
4	5442	5275	5443	5450
4	5847	5527	5773	1576
4	4381	2307	2391	2310
4	4492	4604	4609	4582
4	5568	2464	2391	2461
4	5435	1604	238	1603
4	5768	2941	5599	2942
4	5605	240	239	1605
4	4381	2247	2307	2310
4	4378	2305	2384	2307
4	4652	4597	4495	4506
4	4536	4060	4058	4240
4	6004	5766	6000	5185
4	6277	1595	297	296
4	5345	2515	5604	4062
4	6004	2078	2643	5766
4	4241	5111	5112	4778
4	4116	2249	2247	2147
4	5512	2149	2150	2066
4	2142	5766	6004	5185
4	6004	5185	2177	2142
4	6004	2644	5669	6000
4	4926	6004	5669	6000
4	4973	6004	5185	6214
4	2586	4863	4865	2364
4	4116	2146	2249	2147
4	6256	2177	6214	2213
4	6148	1608	1609	243
4	6149	2807	2804	2803
4	6316	2807	2803	296
4	6257	2147	2247	2186
4	6256	5995	4926	5016
4	4784	5441	4129	5146
4	3944	2070	519	518
4	4129	5440	4785	4786
4	6316	18	296	2803
4	4126	5957	5634	5928
4	4129	5441	4141	5149
4	6079	1596	230	295
4	6062	1597	231	1596
4	3964	4390	4101	6260
4	4146	4907	5179	5180
4	4135	5516	5517	5518
4	5869	1600	234	1599
4	4215	4217	4906	4231
4	5451	4957	4946	6038
4	4131	6130	4123	4125
4	3876	3880	3970	3877
4	6193	2469	2397	2470
4	3881	4232	4233	4235
4	6022	2988	2998	2999
4	2997	4706	4708	4707
4	6269	234	3002	233
4	6281	2978	2979	2968
4	5991	2521	2563	2517
4	4865	2548	2586	2284
4	5396	4506	2721	2720
4	4903	5222	3864	3879
4	6099	5869	232	1598
4	3876	2764	5298	3880
4	4875	6032	6126	5979
4	4906	6032	6031	5010
4	5993	1602	236	1601
4	4893	2556	2512	2509
4	6182	2561	2559	2557
4	2962	5783	2972	2961
4	4431	4094	4090	4089
4	4129	4139	5151	5149
4	6182	2563	2562	2561
4	4935	4937	4939	5739
4	3963	2992	3002	234
4	5993	1601	236	235
4	5216	4811	5219	4809
4	5773	5527	1575	1576
4	4925	5061	5218	4973
4	5775	6138	6246	2930
4	4818	5219	5952	6242
4	4812	4935	5739	4940
4	4623	2970	5936	2971
4	5953	2524	2567	2522
4	4938	4940	4811	4730
4	5666	5219	4143	5062
4	5798	4341	5081	4346
4	6268	2972	2961	2971
4	4222	4224	4869	4870
4	5456	6275	6033	6034
4	4027	4029	4408	4404
4	6237	6274	2787	2788
4	5568	2464	2393	2391
4	4396	5095	5096	5098
4	5768	2942	5599	5500
4	4536	239	238	1604
4	4889	6097	4890	6025
4	5599	2951	2952	2941
4	4821	4305	5870	4432
4	4267	2244	2310	2312
4	4438	6215	5870	4867
4	5967	4882	5968	4885
4	4539	240	2942	239
4	6282	583	2791	584
4	4294	5410	2805	2808
4	6148	1608	243	242
4	4219	2242	2149	2148
4	2244	2242	4228	2148
4	2929	2918	6138	6201
4	6315	2803	2799	18
4	5967	4882	4885	4855
4	6257	2186	2247	2244
4	4663	2003	6105	5687
4	5968	2964	5665	2965
4	2964	5665	4794	2954
4	5981	2919	2920	2909
4	5968	4882	2965	5665
4	6316	243	1609	18
4	6226	2326	2328	2229
4	4795	5968	2954	5665
4	6295	589	588	2771
4	2150	2067	6235	2066
4	5968	4795	4885	5665
4	6160	6153	1994	484
4	6204	5990	6116	6181
4	4442	4060	5783	5469
4	6287	585	6317	2787
4	4344	5567	5209	4368
4	4283	4343	5500	4059
4	6153	484	2900	483
4	6306	570	569	2623
4	6153	2899	6105	483
4	6305	115	116	899
4	6306	2623	2609	570
4	6199	6306	569	2623
4	4283	4539	5500	5783
4	4056	4435	4061	4060
4	6199	2750	2118	568
4	5790	3975	5173	5144
4	6199	6306	6200	2749
4	4538	4060	5783	4539
4	5793	6014	6028	6071
4	6200	2623	6276	6306
4	4139	4131	4126	4127
4	2118	6199	2637	5501
4	2750	2118	568	42
4	5180	2236	4908	4910
4	4430	4374	6086	4181
4	5792	3980	5091	6200
4	3969	3971	3980	3975
4	5091	2754	2750	2753
4	4192	4188	5804	4186
4	6313	115	171	11
4	5972	6011	5898	6085
4	6200	6306	2748	2749
4	4407	5898	5972	5971
4	4234	2759	2760	2756
4	4425	5898	6112	6085
4	4425	6086	4424	6085
4	6305	2755	2751	115
4	4029	5975	4112	5935
4	4970	5997	4930	4929
4	5091	2749	2753	2750
4	5792	5173	3980	2624
4	5863	5862	591	2903
4	6000	2630	4930	4970
4	6028	5791	6012	2653
4	5090	2753	2757	2754
4	6028	2654	5791	2653
4	5090	2758	2754	2757
4	6276	6241	4785	4783
4	4230	6263	2913	2914
4	4970	2630	4930	5997
4	4515	5614	4630	4535
4	6130	175	6032	174
4	5880	925	6213	926
4	4131	895	910	909
4	6030	173	6031	897
4	3029	5788	3019	5854
4	5501	2750	525	2118
4	4238	5979	173	6031
4	5791	433	6012	2653
4	4522	4529	4535	4525
4	4038	4515	4632	4630
4	2762	2074	523	522
4	5090	2758	2075	2754
4	4960	4520	4449	5885
4	3861	2232	2180	2225
4	4991	4990	4989	4766
4	5501	2754	525	2750
4	2758	2075	2754	524
4	4358	5949	5700	4357
4	5180	5182	2337	4910
4	3979	2757	2761	2758
4	5700	4358	5313	5950
4	5791	6014	432	2654
4	5863	6313	4236	171
4	3880	2764	2765	2761
4	5298	3860	3858	3857
4	5808	5851	5279	5867
4	5791	433	2654	432
4	5966	2154	2188	2229
4	3877	2756	2760	2757
4	4992	5313	5700	4357
4	5363	4735	4885	4884
4	5264	2765	2762	2761
4	5862	591	590	2763
4	2569	2568	5582	2567
4	5979	6031	6032	173
4	4130	5516	4875	4125
4	3864	5222	3882	3879
4	3861	2180	2176	2225
4	5264	2762	2766	2073
4	5962	2073	2130	2074
4	3979	2075	5090	2758
4	4826	4591	4645	2703
4	6131	5196	6150	2963
4	5854	3019	3030	3020
4	5979	172	2923	2913
4	4736	4886	4735	4734
4	2762	2074	522	2073
4	2762	2074	2758	523
4	3860	2765	5298	2769
4	5625	5626	5733	5414
4	4771	6039	5517	4770
4	5863	171	2903	11
4	4729	6302	5216	4288
4	4135	5517	5516	4764
4	2151	2150	6235	6142
4	4237	171	172	2913
4	3878	2759	2763	2760
4	4135	5215	5517	4764
4	4237	2903	171	2913
4	4135	5517	4136	4288
4	5181	5182	5179	5518
4	4130	5179	5516	4125
4	6129	4123	4125	4764
4	5320	6175	3913	4656
4	6263	2904	2903	2914
4	5320	4420	4419	4422
4	6294	2767	590	589
4	5320	4419	4454	4422
4	4455	6175	4456	4454
4	6019	2767	2768	2764
4	4456	4454	6175	5320
4	6264	2904	6263	2914
4	2333	3863	4904	4905
4	5962	2130	2073	2180
4	4453	4454	5320	4419
4	6235	2068	516	2067
4	5512	2149	2240	2150
4	6226	2219	2229	2328
4	5320	4659	3913	5316
4	5862	6263	2904	2903
4	6203	6018	2776	2780
4	5319	5316	4453	4356
4	5925	2228	2331	2225
4	4450	4452	4453	4454
4	5848	2775	587	2779
4	4365	4181	4362	4354
4	4459	5668	5448	4497
4	4451	4464	5359	4452
4	2774	2071	520	519
4	3859	2766	3860	2770
4	4357	4359	4356	5314
4	3861	2180	2072	2176
4	4356	4354	4364	4359
4	3862	5962	3861	4904
4	4223	5779	5601	4869
4	2926	2916	5735	5734
4	4203	4201	4445	4443
4	4202	6197	4384	4200
4	4555	3856	5299	4565
4	3859	3945	3861	2176
4	4354	4355	4356	4364
4	5700	4357	5313	4358
4	5848	588	587	2775
4	4669	4629	5482	4670
4	6316	18	6315	243
4	5172	5884	4520	5324
4	6294	6295	2771	589
4	4513	4515	4037	4036
4	4632	4630	4515	5614
4	4669	4673	4044	4674
4	6264	2914	2915	2904
4	6203	2771	2775	2772
4	4515	4038	4045	4630
4	4525	4514	4512	4530
4	4556	2769	2768	2772
4	4670	6056	4045	6057
4	5977	2923	2934	2924
4	5582	5580	2568	2570
4	6019	2763	5862	2767
4	4370	4372	4190	4425
4	2532	2572	5549	5548
4	4237	5863	4236	171
4	2071	3859	2774	520
4	2774	3858	5299	2773
4	5557	4899	4831	6252
4	3861	2180	2073	2072
4	3946	2773	2777	2774
4	4897	4899	4978	5656
4	4561	5735	4560	5734
4	4694	4642	4643	6051
4	4637	4643	4642	4644
4	4694	4641	4700	4695
4	6203	2779	2780	2776
4	5076	5730	5883	5566
4	4024	4480	4481	4773
4	6295	2771	588	2775
4	4871	2789	2788	2792
4	4481	4483	4485	5282
4	5857	3029	3040	3030
4	5227	6095	5131	5226
4	5154	2066	514	2065
4	4481	4485	4780	4242
4	6018	2780	2777	2776
4	5282	5227	6095	4246
4	4219	2065	2148	2149
4	4077	5745	4805	5251
4	5966	2229	6164	6230
4	4558	5249	5221	3864
4	4904	2335	4910	2216
4	5817	1656	5818	1657
4	519	2071	3944	2774
4	3946	2777	2778	2774
4	4312	4717	4072	5815
4	5744	4794	4795	2954
4	4563	5966	5963	5964
4	4715	4073	4312	4716
4	6224	5848	6236	2779
4	4826	5007	2707	577
4	4309	5170	4104	4096
4	4096	4013	4098	5170
4	4568	2781	2784	2785
4	6224	2783	2780	2779
4	3897	4077	4803	3891
4	5926	2409	2331	2329
4	6179	2222	2321	2323
4	5817	5818	5166	4316
4	5581	5580	5582	6206
4	4104	5170	406	407
4	5865	5816	6091	5873
4	5865	2967	6091	2966
4	2789	4575	2788	2785
4	5865	2977	6091	2967
4	2778	2782	6096	2069
4	5865	5816	4880	6091
4	4565	5925	5964	5963
4	5864	5865	5816	4880
4	2782	2778	518	2069
4	5582	5580	2570	6206
4	4766	4994	5348	5343
4	4268	4265	4262	4225
4	6096	2781	2785	2782
4	4757	4756	4760	3867
4	6179	2222	2323	2234
4	4148	4150	4762	6008
4	4757	4759	4762	4150
4	4028	4890	4889	4427
4	3865	3868	6184	3870
4	5833	5160	4661	2677
4	5735	4560	5734	6109
4	6234	2407	2478	2480
4	6171	5741	4658	4967
4	5981	2909	2920	2910
4	5413	5414	5415	2934
4	4588	4866	4826	4660
4	3957	6171	3953	6172
4	3957	6301	3962	5720
4	4919	2926	6227	2936
4	4967	6123	6171	5741
4	4967	5648	5647	5741
4	4967	5647	5462	6157
4	5463	5320	4656	4420
4	6145	2912	2922	242
4	2810	2062	511	510
4	4657	4656	5320	3913
4	2786	2068	2782	517
4	6096	2785	2786	2782
4	5899	5900	6265	5875
4	6096	2069	2782	2068
4	2789	4566	4575	2785
4	5899	5901	6265	5900
4	5562	5824	4624	4201
4	4656	4966	4655	4657
4	5899	6171	6172	6265
4	5899	6314	2676	5875
4	4014	4015	4094	4011
4	2798	2065	513	2064
4	4004	4006	4618	4619
4	5601	4122	4221	4222
4	5582	2568	5580	6066
4	5697	1666	34	406
4	4870	2796	2793	2792
4	4243	4012	4256	4255
4	6287	2783	585	2787
4	6179	2403	2323	2401
4	4570	6108	6221	6137
4	4618	4260	408	407
4	6289	2401	5600	6104
4	5513	2321	6180	2222
4	3838	2893	4065	2897
4	4566	4868	4573	6235
4	4065	2892	5353	2891
4	5776	5584	5586	5597
4	4569	5976	4571	5980
4	4065	4064	2892	2893
4	2802	512	2063	2064
4	4067	3933	4080	4160
4	4868	2789	2793	2790
4	5489	6113	4162	5526
4	6235	2786	2790	516
4	2790	4868	2789	4566
4	4065	3934	5353	4064
4	4078	4501	3839	4500
4	3835	3933	4065	3934
4	5881	6105	2899	1794
4	6282	583	2795	2791
4	4324	5024	5471	5466
4	6105	2899	1794	464
4	4844	5108	4989	5109
4	6287	2908	2909	586
4	6202	2795	2792	2791
4	4826	4866	5007	3038
4	6202	2796	2792	2795
4	4871	2792	2793	2789
4	5600	2240	2318	2321
4	2802	2064	513	512
4	3987	4846	6053	4845
4	4868	2793	2794	2790
4	421	4756	4757	420
4	4262	4227	4263	4228
4	4988	4990	5358	4987
4	2066	2150	5512	6235
4	4589	2713	2709	2708
4	4222	2800	2801	2797
4	4266	5513	4225	4268
4	4761	4762	4759	5346
4	6202	6237	2791	2792
4	4990	5358	4151	4995
4	4220	2797	4218	2798
4	2794	2066	2790	515
4	3867	4156	4989	5109
4	3985	1691	3982	4846
4	4156	1690	4846	5109
4	4994	4995	5950	5313
4	4140	4141	4146	5629
4	6283	2799	2795	582
4	5060	4731	5216	5055
4	4123	4136	4133	4124
4	4971	4976	2614	2615
4	4928	5016	5021	5669
4	6204	2559	5345	5349
4	4870	2793	2796	2797
4	5881	5687	4663	6105
4	5568	2384	5732	2461
4	4924	4928	4930	5016
4	6257	2147	2186	2063
4	2806	2063	512	511
4	5083	5082	4296	5080
4	4928	2631	4930	5669
4	4811	5952	4938	5219
4	6142	2222	5512	6180
4	6214	6256	4926	6004
4	5154	2794	2798	514
4	4220	2797	2798	2794
4	6105	2899	464	40
4	4122	2800	4294	2801
4	4218	2797	2801	2798
4	5227	4481	5282	4484
4	6146	242	2922	241
4	6315	18	2799	582
4	6283	583	582	2795
4	4776	4487	5227	4781
4	4776	4773	4487	4781
4	6105	2899	40	483
4	4024	4026	5033	4022
4	3809	5969	3808	5845
4	4773	4781	4774	5970
4	5225	5970	4773	5692
4	6315	582	243	18
4	4394	5732	5731	4280
4	6149	4294	2804	2808
4	5309	5312	5238	5310
4	1605	239	4539	4536
4	6233	1609	1594	1595
4	4294	2804	2805	2801
4	4218	2801	2802	2798
4	4978	4977	4838	5655
4	4285	5312	4281	4338
4	6144	2803	2804	2800
4	2810	2062	510	2061
4	2802	2064	2798	513
4	4281	4338	4997	4285
4	4228	2148	4229	2244
4	4218	2802	2064	2798
4	6065	1595	1580	1581
4	5409	2810	2061	2062
4	4285	4017	4281	5312
4	4285	5310	5238	5312
4	4411	4977	4410	4032
4	4118	2806	2063	2802
4	4643	4644	4637	5882
4	6282	6317	5981	2910
4	6024	5237	5238	4798
4	6147	1608	1593	1594
4	5918	298	1581	334
4	5097	5797	4740	4298
4	6153	483	6105	2003
4	4623	6268	2971	5936
4	4739	4741	2813	4740
4	2806	2063	2802	512
4	4977	5750	5748	5749
4	4294	2804	2808	2805
4	6147	1593	1608	1607
4	4115	2806	2810	2062
4	5310	6217	4199	5674
4	4338	4199	5310	6217
4	4739	2816	2817	2813
4	5726	335	1581	1580
4	4199	4285	4286	4997
4	6278	2807	2811	2808
4	6019	5298	2763	2764
4	4410	6217	5310	5973
4	4776	4481	5227	4487
4	5223	5224	4487	5076
4	4119	2247	4116	2249
4	4246	4481	5282	5227
4	5076	5226	5228	5246
4	4115	2809	2806	2805
4	5405	2812	2809	2808
4	4059	4539	5530	5500
4	5769	5605	1607	241
4	5876	6065	1594	1580
4	5337	3025	4603	5747
4	2810	2062	2806	511
4	5033	6050	4022	5565
4	5133	5072	5504	5265
4	5409	2810	2814	2061
4	5726	6065	1580	1581
4	5431	2819	2823	2820
4	4552	4550	5303	5301
4	3940	4486	5563	4489
4	4489	4480	4486	4488
4	4026	4486	4773	5234
4	5727	1768	5079	335
4	5797	5411	2185	2254
4	5339	4673	6042	6163
4	5409	2813	2810	2809
4	5476	6163	4673	3936
4	4118	2801	2805	2802
4	5080	5726	5307	5431
4	4545	5871	4553	4548
4	6188	2274	5096	2269
4	3809	5845	3808	4637
4	4625	4628	4249	4958
4	4740	2061	5409	2814
4	4625	4038	4626	4916
4	2814	2061	2810	510
4	5409	2813	2814	2810
4	4627	6043	4916	5326
4	5918	298	6232	1581
4	4251	4249	4958	4253
4	2826	2057	2058	506
4	5405	2808	6278	2812
4	5918	5726	6065	5430
4	4297	2820	2821	2817
4	4162	6127	4161	4084
4	5381	2828	2832	2829
4	4292	2820	2824	2821
4	4163	1987	4157	1986
4	4740	2814	5409	2813
4	4157	4662	4158	1987
4	4301	5096	5499	5498
4	5430	2820	2816	2819
4	5727	335	1580	336
4	5727	1580	1579	336
4	2818	2060	2814	509
4	4740	2817	2818	2814
4	5490	4081	4662	4158
4	4293	4292	4291	2821
4	6210	183	4578	887
4	4298	2817	2821	2818
4	4349	4346	337	4347
4	3883	2763	5298	3878
4	334	445	4385	5918
4	1997	6113	1996	4158
4	4866	3038	3027	3037
4	6233	6065	1595	1594
4	5616	1798	1748	1799
4	4163	4083	4161	4663
4	3883	2763	6019	5298
4	4291	4293	2821	4298
4	4662	6127	2005	4161
4	5499	4291	4300	4293
4	2818	4300	508	2822
4	4298	2821	2822	2818
4	3883	4237	5862	3878
4	5746	5002	5654	2423
4	4292	2825	2821	2824
4	4291	2821	2825	2822
4	5308	2829	2825	2828
4	4662	4161	2005	1996
4	6019	5298	2764	2768
4	5918	445	4385	2819
4	4385	334	1725	445
4	3871	6026	4889	3874
4	5431	2823	2824	2820
4	5381	4833	2832	6093
4	5080	335	5727	5079
4	3931	4164	3930	4042
4	4827	6225	2833	2834
4	5125	4676	5128	5130
4	1739	446	2827	5317
4	4629	4672	6110	5239
4	4291	2822	2826	2058
4	4860	4632	4437	4436
4	4291	4300	2822	2058
4	4291	2822	4298	2821
4	4038	4518	4515	4037
4	6092	6252	1849	5558
4	5773	5367	4276	5366
4	2826	2058	2822	507
4	3929	5248	4670	5482
4	4291	4289	5499	2058
4	2135	5497	5499	2263
4	4425	5897	5328	4190
4	5065	5489	4159	5235
4	4833	2837	2833	2836
4	4385	1903	5317	446
4	4670	6194	5482	5248
4	5306	2827	2824	2823
4	6294	6019	6263	5862
4	4385	5307	5317	1725
4	2831	1748	448	447
4	5306	2827	2828	2824
4	4289	2830	2057	2826
4	3856	6019	4556	5298
4	4111	5851	5866	6090
4	2838	2056	504	503
4	5497	5496	5498	2214
4	4112	5851	5866	4111
4	4029	5391	5971	5935
4	5498	2263	2351	2350
4	4110	4112	4111	1969
4	4827	2838	2834	2837
4	5369	5876	5086	6065
4	5594	2258	2171	2129
4	4109	4111	1970	4110
4	2830	2826	506	2057
4	4557	3883	5250	6263
4	4111	6090	6291	1962
4	4798	5655	5247	5242
4	4385	5431	2823	5306
4	4111	1962	4109	1956
4	5594	2258	2259	2171
4	1956	1970	4111	1969
4	6249	2831	2835	2832
4	5084	5606	4352	1593
4	6225	2830	2834	2021
4	5304	5424	5302	5255
4	4700	4699	5594	4834
4	2838	503	2055	2056
4	2834	2830	505	2021
4	4447	4101	6033	4100
4	5397	5496	2125	2253
4	4827	2021	2834	2056
4	6093	2832	5382	2831
4	4446	4447	5836	4175
4	4696	5594	2258	5785
4	2835	448	2831	1748
4	4901	1738	1796	1740
4	4901	449	1738	1740
4	5116	5123	5124	5122
4	4752	5829	5830	5331
4	4035	4837	4403	5751
4	4901	1738	1798	1796
4	5646	2576	5552	2574
4	4833	2836	2833	2832
4	6252	1848	1796	1798
4	2835	4901	4900	2839
4	4828	4827	4833	4834
4	4829	4695	4838	5750
4	2851	1741	1735	5427
4	4827	2838	2056	2834
4	4411	5751	4035	4838
4	2842	2055	502	2054
4	4827	2837	2834	2833
4	2838	2056	2834	504
4	4029	6011	5972	5975
4	4822	6229	5594	4823
4	5646	5645	2576	2536
4	2259	6229	5594	2171
4	4838	5751	4035	4403
4	6082	5328	4425	5897
4	4797	1841	1793	1795
4	4881	4789	4790	5816
4	2843	450	1740	1737
4	2854	500	499	2052
4	5195	5331	5329	3828
4	4028	4768	4406	4890
4	4752	5195	3830	5331
4	3829	4372	4425	5330
4	4834	2842	2055	2838
4	5289	5296	5646	5295
4	4725	4900	4831	6252
4	2847	452	451	1735
4	2842	2838	503	2055
4	4028	4888	4030	5975
4	5906	5749	2270	5907
4	6093	5616	2831	5385
4	4370	3829	4372	4425
4	4830	3031	3032	3021
4	5043	5375	5698	6098
4	2843	450	2839	1740
4	5077	5043	5698	6098
4	4797	1737	1795	1793
4	4796	4797	4792	5427
4	5363	4884	4885	4855
4	2858	2050	499	498
4	4644	2053	2850	2052
4	5845	2250	2265	2168
4	4699	2846	2054	2842
4	5267	5756	5268	5136
4	4644	4637	4636	4642
4	5882	2265	5845	3808
4	5246	5043	5128	5228
4	1846	5557	5394	1890
4	2846	2054	2842	502
4	5223	5224	4781	4487
4	4642	2054	2846	2053
4	4638	4727	4796	4726
4	6051	2053	4642	4644
4	4487	4486	4773	4480
4	4799	1837	3942	1797
4	2847	451	2843	1737
4	5104	5045	5135	5043
4	4796	2847	2848	2844
4	4728	4644	2849	2853
4	5104	5230	5043	5228
4	5510	2167	2048	2166
4	5332	4426	4462	4991
4	6126	5415	2934	2944
4	4642	2850	2053	2846
4	4362	4375	4376	4361
4	4642	2845	2849	2846
4	1846	4899	6252	1796
4	4991	6140	4988	5335
4	6272	2430	2590	2425
4	2850	2053	2846	501
4	4888	5279	5281	3872
4	5882	2052	4644	5472
4	6051	2270	5882	5906
4	4074	5166	3891	4802
4	5267	5268	5266	5136
4	4022	6052	5565	6050
4	2851	452	2847	1735
4	5268	2878	494	2874
4	5427	5564	4799	4640
4	4640	2851	2852	2848
4	5268	2042	2874	494
4	5693	5756	5268	5267
4	2866	2046	497	496
4	2862	2048	498	497
4	4644	2854	2052	2850
4	5267	5693	5269	5268
4	5429	5564	2852	4640
4	4698	2840	4726	2844
4	2040	494	5268	2878
4	4698	2844	2845	2841
4	2854	2052	2850	500
4	5268	2040	2878	5757
4	2848	4796	4638	4640
4	3937	4799	3949	3942
4	4543	2863	2864	2860
4	5136	5106	5104	5757
4	5268	2165	5756	2153
4	2855	2851	1741	453
4	5757	5268	2040	2165
4	5909	1923	5671	5672
4	5564	2855	2856	2852
4	5372	5411	4740	5797
4	5372	4741	5099	5097
4	3948	3943	3809	5429
4	5472	2858	2050	2854
4	5097	4299	4298	4740
4	4875	4765	6126	6032
4	4796	2847	1737	1735
4	5052	5698	5375	6098
4	5097	4300	6188	5797
4	2858	2050	2854	499
4	4301	5096	5097	6188
4	5503	2866	5265	2046
4	4486	5563	4489	4488
4	5504	2865	2861	2864
4	4901	1740	2839	449
4	5472	2858	5505	2050
4	2859	454	2855	1742
4	2839	4726	4901	4900
4	5472	2857	5505	2858
4	3941	2859	2860	2856
4	5762	2166	2127	2256
4	6272	5311	5820	2425
4	5690	2422	2429	2491
4	5505	2862	2048	2858
4	4901	5616	1798	1738
4	4725	4901	4726	4900
4	5071	5074	5072	5073
4	5505	2861	2858	2857
4	5504	2868	2865	2864
4	5564	3948	3943	3937
4	5504	5265	5503	2865
4	4901	1740	4898	4726
4	5762	2046	5510	5503
4	3808	5906	2265	5907
4	4901	1738	2835	5616
4	2862	2048	2858	498
4	4901	6252	1796	1798
4	4899	6252	4901	4725
4	2863	455	2859	1734
4	4725	4899	4898	4901
4	5225	5693	5240	5970
4	2867	1744	457	456
4	3943	5472	5429	5505
4	5073	2867	2863	1743
4	2870	495	2042	2044
4	4639	5429	3948	4637
4	5429	2852	5564	2856
4	5503	2866	2046	2862
4	4728	2853	5429	5472
4	5429	2852	4728	4640
4	5133	5073	5075	2868
4	5505	5503	2861	4544
4	5073	5504	5133	5072
4	5084	5876	1593	1579
4	4331	4332	4338	4032
4	5503	2866	2862	2865
4	5265	5266	5691	2044
4	5052	1745	2879	459
4	4196	6064	6015	5569
4	2866	2046	2862	497
4	2867	2863	1743	456
4	5133	5265	2869	5266
4	4194	3996	4008	4271
4	5234	4775	4024	6050
4	4332	4032	5866	6217
4	4195	4996	5379	5904
4	5075	2871	2867	1744
4	5266	2874	2042	2870
4	5269	2153	2122	2042
4	5728	5883	1842	1839
4	2874	2042	495	494
4	5265	2870	2044	2866
4	4194	4997	4281	4996
4	4858	4857	4983	4485
4	2870	2044	2866	496
4	4982	5262	4255	4004
4	5265	2865	2869	2866
4	5757	5756	2165	5105
4	4003	4005	5941	5380
4	5695	5262	4255	4010
4	4005	5263	4004	5262
4	2871	457	2867	1744
4	4705	4619	3997	4711
4	4006	4003	4617	4614
4	2875	1736	1749	458
4	5698	2875	1736	1749
4	5133	2872	2869	2868
4	4005	4007	4004	5263
4	6098	1789	1840	1801
4	5375	1838	5048	1803
4	5130	1882	5126	1918
4	5698	2875	2871	1736
4	3842	3892	3885	3893
4	3893	3844	3892	4075
4	5268	2153	2042	2040
4	4487	5566	5883	4488
4	5135	2872	2876	2873
4	2874	2042	2870	495
4	4680	5959	3844	4755
4	5076	5566	5226	5730
4	5266	2874	2870	2873
4	2878	494	493	2040
4	3892	5915	4680	5958
4	2875	458	2871	1736
4	4842	1647	3886	1648
4	5643	5615	4864	2583
4	2879	1745	460	459
4	4069	2022	2164	2023
4	6036	2163	2019	2023
4	2890	491	490	2023
4	4433	5458	4685	4964
4	6106	1803	1788	1745
4	6266	6129	4765	2943
4	4306	4821	4432	4305
4	5045	2880	2877	2876
4	2923	2933	5979	5977
4	5756	2224	5105	5509
4	5757	2020	2165	2040
4	5979	5977	2933	6126
4	2882	2019	2020	492
4	5893	4307	4305	5870
4	5698	2875	2879	2876
4	459	2879	5698	2875
4	4876	5979	6126	5977
4	4298	4293	4301	4300
4	2876	2879	5698	2880
4	5688	5185	4972	5766
4	2894	2022	490	489
4	4909	5619	5620	5739
4	2882	5757	5106	2878
4	4729	5216	4809	4811
4	6106	2883	460	1746
4	5757	2020	2882	5508
4	6126	5977	2934	5415
4	5239	2352	6110	2428
4	2882	2878	493	2020
4	5060	5688	5515	5186
4	5481	5717	4066	5248
4	6194	6110	6068	2353
4	5216	4730	4731	5062
4	4729	5216	4811	4730
4	5478	2889	2885	2888
4	5360	5361	5364	5365
4	4723	2987	5816	4788
4	6036	5508	2886	2019
4	4069	2022	2278	2164
4	4774	4779	2390	2349
4	5047	5105	5507	6068
4	4135	4137	5179	5518
4	5476	1888	6163	1880
4	5508	2886	2019	2882
4	4127	4138	4146	5179
4	5508	2881	2885	2882
4	5374	4046	1804	1847
4	6036	5717	2164	4069
4	3834	2357	2278	2279
4	2886	2882	492	2019
4	4965	4658	4657	4968
4	5106	2881	2882	2878
4	5106	2877	2881	2878
4	5946	2885	2889	2886
4	4967	5647	5648	5462
4	4046	5476	1845	1847
4	2887	5479	5477	461
4	4655	3920	4661	5833
4	5546	4723	5816	4788
4	4069	3831	3834	3833
4	2023	491	6036	2890
4	5160	2676	4661	2677
4	2898	2120	488	2365
4	4593	3811	3815	3817
4	4501	6177	1985	1976
4	3913	6175	4456	3927
4	5508	2020	2882	2019
4	4720	2988	4707	5652
4	3916	4655	3920	4661
4	4070	5717	4069	2164
4	5946	2886	5508	2885
4	5676	2889	2893	2890
4	3916	5157	5160	3921
4	4662	4158	1987	1996
4	3916	5161	3913	4659
4	4721	4720	4707	5652
4	3935	5477	5353	5479
4	4065	2891	5352	4504
4	3917	3993	3919	4452
4	6049	4500	2898	2365
4	4720	5872	4723	2988
4	2977	2987	5873	5872
4	3917	4456	3919	3927
4	3840	6162	4690	2134
4	3833	4066	4069	3831
4	5340	1880	6163	1921
4	6133	1823	6152	1780
4	2890	4069	490	2894
4	3909	3900	4948	4209
4	4081	4689	4068	4082
4	4505	1995	1985	1994
4	3832	2894	2898	2120
4	4471	5165	5164	4475
4	5270	5337	5229	5338
4	4306	4307	4212	4821
4	2895	463	2891	1747
4	4047	4308	4981	4053
4	4208	4896	4049	3912
4	4207	3854	3911	4649
4	5881	1794	2899	2895
4	4162	6127	5526	6113
4	6105	5687	2003	1730
4	4079	2896	2900	2897
4	4054	4980	6041	4049
4	3932	5481	4674	5050
4	4049	5721	5878	6122
4	4210	3911	3912	4214
4	4980	2000	5923	2001
4	4692	2272	4511	2267
4	3822	5681	3819	5680
4	3822	4737	5680	3819
4	3818	2657	3819	2656
4	2898	2120	2894	489
4	3811	5686	3822	4592
4	5681	2656	5686	2652
4	4070	4066	5248	3837
4	4502	2901	2902	2898
4	2661	3988	2660	3818
4	4502	2901	2898	2897
4	5686	2656	3819	2652
4	4079	2897	2900	2901
4	6105	1730	2003	465
4	5881	6153	2900	2899
4	6153	2900	2899	483
4	5681	5686	3819	2652
4	3836	3839	3838	4082
4	6029	4046	5350	1802
4	6127	467	2005	1729
4	5686	4592	2660	2655
4	6177	2902	2901	485
4	5771	4547	4709	4552
4	6127	6113	2005	1769
4	4663	6160	1994	4505
4	5255	6088	5302	5835
4	5065	4691	4159	5490
4	6049	41	487	486
4	6049	487	2039	2365
4	6049	2898	488	2365
4	5350	4046	1879	1802
4	4501	4505	4078	4163
4	5304	5835	5302	4002
4	4000	5302	5304	5300
4	4554	5302	5424	6088
4	5863	591	2763	2759
4	6203	4557	2772	6228
4	5862	2767	2763	590
4	5863	5862	2763	591
4	6294	2771	2767	589
4	5610	4707	4721	4723
4	4923	4581	4931	5667
4	4166	4167	5017	4168
4	6294	5862	6263	2904
4	6019	2767	2764	2763
4	6294	2904	2905	590
4	5250	2914	6264	6263
4	6019	2772	2768	2771
4	6203	2776	2772	2775
4	6228	6203	2776	2772
4	6224	2783	2784	2780
4	6236	2783	2779	586
4	5466	6251	2740	6293
4	5017	6293	6299	6251
4	5017	6299	5018	5026
4	5841	2403	2407	2326
4	4919	2926	5575	6227
4	5848	6236	2779	587
4	5017	6211	6240	6212
4	6018	2780	2781	2777
4	6109	6203	5848	5849
4	5848	2906	2907	588
4	2323	6165	5841	6179
4	6287	2908	6231	2909
4	6227	2925	2936	2926
4	5017	6299	6293	6212
4	5739	4940	4935	4937
4	5739	4735	4812	4940
4	6317	584	2791	2787
4	6237	2792	2788	2791
4	5583	2939	5584	2929
4	6298	3013	4182	3023
4	6287	6231	6317	2909
4	5617	5624	4853	5626
4	4937	5363	5739	4940
4	5363	4854	4884	4855
4	4853	4855	4884	4854
4	5553	5654	4371	5555
4	4118	4122	2801	4218
4	6274	2783	2787	2784
4	6222	6231	2908	2918
4	4350	4352	5084	5606
4	6317	584	585	2910
4	6130	4125	6129	4123
4	6237	2787	2791	2788
4	5311	6272	4017	5903
4	6129	5215	4123	4764
4	4124	4140	4134	4132
4	6315	2912	243	582
4	6282	2910	2911	584
4	5270	575	574	2719
4	4784	5145	5724	5441
4	5216	4288	4136	4729
4	3971	4129	4217	4785
4	6282	6283	2795	583
4	5780	2921	2922	2911
4	5775	2931	2920	2930
4	4135	4764	5516	4125
4	6263	2903	2913	2914
4	5440	2624	2625	2610
4	3880	2764	2761	2760
4	3883	4237	6263	5862
4	6266	2943	6126	2933
4	6264	6109	2905	2915
4	4522	6220	5613	4529
4	4977	6020	6176	5749
4	2915	5734	2925	2914
4	5849	2906	2917	2907
4	6109	2905	2916	2906
4	5842	2478	2403	2474
4	6108	2917	2927	2928
4	6109	5848	2906	5849
4	4981	4528	4469	5890
4	4048	4962	4302	4305
4	5848	6203	6295	2775
4	5848	6295	588	2775
4	5532	2478	2532	2480
4	4915	6186	6196	5842
4	5583	2929	5584	6246
4	4560	6198	6018	6203
4	4051	5152	4055	5321
4	4468	4469	4052	4467
4	6287	6274	6236	2783
4	4516	4303	5148	4519
4	4576	5777	5980	6138
4	4192	4191	5448	5442
4	4977	5750	5749	6176
4	4493	5761	6300	6210
4	5575	2927	2916	2926
4	5450	5275	5276	5445
4	4871	4220	2793	4870
4	6282	5781	2911	2910
4	6108	2928	2918	2917
4	5600	2318	2398	2321
4	4952	5467	6116	4954
4	4121	4223	4263	5601
4	6237	2787	6317	2791
4	6201	2918	2928	2929
4	6246	5776	5514	5775
4	5338	574	573	2723
4	4058	4061	4240	4060
4	5525	6182	6116	6204
4	4268	2242	2312	2318
4	6138	2930	2920	2919
4	5354	4276	5355	5274
4	5750	2296	5749	6176
4	5781	2920	2921	2910
4	6096	2786	2068	2782
4	6100	2523	5212	2566
4	5780	2922	2912	2911
4	5981	2909	6231	2919
4	5775	5778	2920	2921
4	4218	2065	2798	2064
4	5778	2921	2932	2922
4	5356	5445	5705	5276
4	5835	5302	5301	6088
4	4554	4702	4709	6088
4	5599	4344	5209	5597
4	5154	2798	4218	2065
4	5411	2254	5094	2249
4	5602	2799	2800	2796
4	4493	4597	2727	2728
4	4225	4267	2312	4228
4	5342	5779	5601	4345
4	6282	2911	5781	6283
4	5592	4545	5871	4554
4	2181	2315	4908	3976
4	4230	2913	2923	2924
4	3969	3977	3976	3973
4	5771	4552	5772	4551
4	5925	5963	5621	2329
4	5953	2524	5954	2569
4	4446	5836	5140	4174
4	6091	4880	4854	5365
4	4919	2926	2937	2927
4	5536	5551	5534	5561
4	4202	5767	5561	6136
4	4237	6263	5862	2903
4	5837	2914	2924	2925
4	5967	2965	2966	2955
4	4920	2936	6227	2946
4	5747	3014	3024	3025
4	4567	4570	6167	6166
4	4554	5592	6185	5871
4	5085	5876	5084	5086
4	4933	2947	2948	2937
4	5661	4913	5658	6135
4	5977	5414	2924	2934
4	4920	4853	4913	4856
4	6179	2234	2323	6165
4	6187	2928	2927	2938
4	4992	5359	4451	4988
4	6104	2398	2471	2401
4	6289	2471	2474	2401
4	4987	5358	4151	4990
4	5639	5314	5158	5205
4	5589	6114	6104	6289
4	6186	2527	2474	2525
4	5968	2954	2965	2955
4	6179	5596	6165	5832
4	6138	2919	2929	2930
4	3993	3917	5158	4452
4	4868	2790	2794	2066
4	5529	5342	4263	4345
4	4563	6167	4560	4559
4	4455	4452	5806	4464
4	4031	6025	4890	4034
4	6100	6103	5590	2523
4	5584	2930	2929	2940
4	4293	4291	4290	5499
4	4268	2312	2395	2318
4	6210	6212	887	6211
4	4452	4456	4455	3919
4	4893	4239	5273	5272
4	5660	2958	2959	2948
4	6143	5636	5912	2582
4	4226	4573	5512	5513
4	4403	6178	5750	5751
4	5778	2921	2931	2932
4	5355	5447	5708	5982
4	6146	2922	2932	241
4	5355	5983	5982	5993
4	5409	4116	4115	2062
4	5529	5768	5770	6223
4	5530	2932	2942	240
4	4979	5392	4409	4978
4	4222	4122	2800	6144
4	4222	2800	2797	2796
4	5111	4524	2503	2516
4	6135	5661	2957	2958
4	5413	2935	2934	2945
4	6126	2933	2944	2934
4	4921	6007	5023	5742
4	4735	4812	4940	4732
4	6039	5739	5619	4734
4	4933	2948	2938	2937
4	5738	2534	2575	2589
4	4812	4730	4940	4732
4	4794	4763	4732	5196
4	4940	4730	5664	5196
4	6227	2935	2936	2925
4	5414	2934	2935	2924
4	4729	4809	5216	6302
4	4794	4732	4763	4795
4	4919	2936	2937	2926
4	5976	2785	2784	2788
4	5734	6109	6264	2915
4	4858	5690	4241	5112
4	4568	2784	2781	2780
4	4983	5282	4485	6001
4	4563	6018	4560	4567
4	4707	2998	5652	2988
4	5764	4270	4857	4008
4	4007	4008	5764	4857
4	4485	4481	4246	4242
4	6096	2069	2068	5966
4	4920	2946	2947	2936
4	6010	2525	2570	2527
4	6103	2523	2525	2471
4	4858	4485	4241	4780
4	5584	2929	2939	2940
4	5586	2940	2939	2950
4	6104	2471	2398	2468
4	5764	3997	4711	4710
4	4242	5689	5111	4778
4	5584	5598	2930	2940
4	5591	2395	2468	2398
4	5662	2938	2949	2939
4	6108	5849	2916	2917
4	5528	4399	5531	5370
4	5276	5349	5344	2556
4	6298	3013	3024	3014
4	5599	5500	2942	2952
4	5087	4299	4301	5097
4	5584	2940	5586	5597
4	3964	3966	3965	6205
4	5598	2940	2941	2930
4	4032	4333	5826	4335
4	4035	4837	4406	4836
4	5605	1607	241	1606
4	5583	2939	2928	2938
4	5768	2941	2942	2931
4	6131	2973	177	178
4	4794	2954	2953	2964
4	6126	2943	2944	2933
4	4885	2944	2955	2945
4	5238	5908	5035	5237
4	5938	6013	4204	6064
4	5548	2572	2575	2532
4	4977	4838	5748	5750
4	4193	4194	4195	4997
4	4997	4285	4286	4281
4	6227	2945	2946	2935
4	5659	5662	5660	5586
4	5310	6217	5674	5973
4	4343	5500	5768	5599
4	5674	4205	6090	6217
4	2984	5542	5879	2974
4	5734	6109	2915	2916
4	4534	5134	4532	4850
4	4885	2954	2955	2944
4	5660	2959	2949	2948
4	5718	2519	4367	2540
4	5552	2581	5738	2589
4	4921	6007	6073	5214
4	5561	5535	5536	5658
4	4921	4929	5997	6007
4	4930	4921	4929	5997
4	6118	4954	6119	4943
4	5586	2939	2949	2950
4	5061	4931	6076	5214
4	4539	240	5530	2942
4	4555	4565	4563	4562
4	5094	2295	4400	5731
4	5597	2940	2950	2951
4	3855	3945	4565	3863
4	6100	2568	2525	2523
4	4220	2793	2797	2794
4	5590	2520	2523	2468
4	4623	5782	5824	2960
4	5212	2566	2523	2520
4	5299	2772	4556	6228
4	2772	2769	5299	4556
4	4539	2942	2952	239
4	3858	2770	2773	2774
4	4369	2466	2393	2464
4	5783	2952	5599	2951
4	5210	2464	2518	2466
4	3862	3860	3861	5962
4	5744	2943	2953	2954
4	6131	177	2973	2963
4	5646	2533	2536	2576
4	3978	3880	3862	5264
4	4565	3858	3946	3945
4	5292	2482	2536	2533
4	5552	2575	2574	2576
4	5694	893	908	907
4	5646	2576	2574	2533
4	2769	2770	2773	3858
4	5299	3946	2774	2773
4	5299	4556	2769	3858
4	5295	2574	2575	2572
4	4856	2956	2957	2946
4	4776	4774	4773	4781
4	6300	183	3033	3023
4	5967	2966	2956	2955
4	4856	2967	2956	2966
4	4856	2946	2957	2947
4	5952	2486	2538	2537
4	5661	2957	2958	2947
4	4776	4242	4481	4780
4	6206	2571	2572	2570
4	5131	4246	5126	6095
4	6135	2967	2968	2957
4	4177	4370	4180	4176
4	5586	2950	5597	2940
4	5111	4862	5262	2503
4	2559	2557	5705	6182
4	6182	6116	6204	5990
4	5582	2569	2570	2568
4	5864	5865	2966	2976
4	6115	2972	2971	2982
4	4443	6258	6100	5212
4	2503	2490	5112	5111
4	5672	3947	4026	4023
4	5583	2939	2929	2928
4	5783	2961	2962	2951
4	5782	2951	5597	2950
4	6193	2400	2470	2397
4	5783	2951	2962	2952
4	6158	3018	3008	4706
4	5211	2518	2562	2564
4	3940	4026	5234	4486
4	5590	2466	2520	2468
4	5782	2960	2961	2950
4	4623	2971	2960	2970
4	5782	2951	5599	5597
4	5111	2490	4778	2454
4	4538	2952	2962	238
4	4541	3940	5233	5234
4	5525	5344	5349	4435
4	4941	2551	2536	2537
4	4935	4936	4941	4810
4	4412	2963	2974	2964
4	2966	4856	6091	4880
4	2975	4881	5664	2964
4	5968	2964	2965	2954
4	5974	5392	6024	4410
4	4285	5312	4272	4017
4	6135	2968	2958	2957
4	4022	4021	6052	4020
4	4856	2956	2967	2957
4	4273	5811	4483	4482
4	6063	5611	5931	4788
4	5261	2999	6022	2998
4	5413	2935	5414	2934
4	4856	2947	4920	2946
4	5670	2317	2344	5859
4	5296	2573	2531	2574
4	5296	2533	2574	2531
4	4788	5542	4789	4787
4	5864	2965	2976	2966
4	5816	2985	4788	2986
4	5622	6226	5576	5621
4	5618	2481	4791	2414
4	4021	5820	5034	3807
4	4183	4185	4819	5121
4	4273	4018	5506	5811
4	5718	2540	5843	2579
4	5736	5733	5626	5737
4	6186	5589	5559	6010
4	5767	2969	2959	2958
4	5718	2588	2579	5843
4	5587	5586	5824	5597
4	6136	2967	2978	2968
4	4016	4021	4019	4017
4	4018	5810	5506	5811
4	6136	2977	2978	2967
4	3852	5402	4310	4887
4	5953	2524	2569	2567
4	4623	2971	2961	2960
4	5631	5852	4816	5799
4	5767	2959	2970	2960
4	4387	2991	2981	2980
4	3852	5402	5401	5403
4	6156	1600	6269	5869
4	3851	4071	5475	5401
4	4706	5652	4707	2998
4	3846	3851	5475	5960
4	5783	2972	5469	4538
4	6193	2397	5115	2400
4	3889	4077	5745	5252
4	6258	4443	6219	5212
4	5567	5210	4369	5604
4	6258	2566	2564	2565
4	4620	2565	2522	2567
4	5992	1600	235	234
4	5469	237	2972	236
4	5469	2972	2982	236
4	237	2962	4538	2972
4	5992	1601	235	1600
4	3954	5840	5452	3968
4	4092	4867	5870	5874
4	5219	5220	6242	5670
4	5889	2484	2483	2537
4	6242	2486	2530	2419
4	5931	2996	3006	5774
4	5542	2974	2985	2975
4	3887	4911	4071	5475
4	3845	5702	4683	5574
4	5664	2974	2975	2964
4	4645	4287	579	2699
4	3845	5574	4683	4684
4	5296	2477	2533	2531
4	6226	2328	5963	2219
4	4941	2551	4810	4936
4	5816	2975	2986	2976
4	5641	2410	2482	2477
4	5042	4675	5046	5047
4	5171	5007	576	2711
4	5481	5248	5482	6068
4	5723	5676	4066	6036
4	5865	2966	2976	2977
4	5816	2985	2986	2975
4	5816	5542	4788	2985
4	5050	5042	5051	5048
4	5872	2978	2977	2988
4	6190	2531	2573	2528
4	5294	6189	5296	5295
4	5339	4039	4673	4044
4	5816	2976	2987	2977
4	5050	2884	5054	5049
4	4830	4174	3021	4175
4	5102	232	3022	231
4	5954	2526	2571	2569
4	4202	6197	4200	5767
4	4100	4102	5988	6303
4	4919	2927	5575	2926
4	5894	5753	1861	1905
4	6260	3001	4389	3000
4	3966	4387	4384	4386
4	4706	2997	3008	2998
4	4622	6089	5953	4620
4	4203	5579	4620	4443
4	5940	3001	3002	2991
4	5424	5300	5305	5423
4	5955	2472	2524	2470
4	5468	236	2982	235
4	5894	1861	5753	1760
4	4202	6197	5420	4384
4	5936	2971	2970	2981
4	2969	4200	5767	2970
4	4764	4763	4765	6129
4	4701	6185	4554	4703
4	5936	2970	2980	2981
4	6258	2565	2567	2566
4	4387	2990	2991	2980
4	4203	4445	5579	4443
4	4623	4201	4202	4624
4	4621	5470	4443	6066
4	6115	2971	2981	2982
4	6219	2563	2565	2564
4	5524	1588	5367	1589
4	6286	1602	1587	1588
4	5524	1589	1603	1588
4	6218	2563	2521	2565
4	4949	4947	5178	6207
4	6115	2981	2992	2982
4	3021	4448	4175	6034
4	5796	2406	4851	6290
4	4445	4201	4200	5936
4	4201	4444	5782	6268
4	5538	4583	6292	5787
4	2983	5879	2984	5678
4	5174	5178	3909	4948
4	5664	5542	2975	2974
4	4546	2325	2327	2405
4	5542	2985	2974	2984
4	5894	5702	5753	1905
4	4185	4184	3004	3003
4	5592	2410	2477	2405
4	4201	4444	6268	5936
4	3909	4209	4948	4211
4	4930	5669	2631	2630
4	4546	2327	2410	2405
4	5642	2330	2413	2410
4	5119	5632	5121	5120
4	5293	2476	2477	2531
4	4924	4927	4931	4172
4	6242	5952	5895	2530
4	4706	3007	3008	2997
4	4443	4442	6181	4284
4	4102	4622	5422	4390
4	5816	2986	2987	2976
4	5260	5823	5115	5300
4	6258	2566	6066	6100
4	6034	6035	3022	4448
4	5467	3965	5784	4954
4	5646	5292	2536	2533
4	6275	3964	6205	6033
4	4707	2988	2987	2998
4	6078	3926	230	3042
4	5840	5454	6054	5944
4	3968	5840	5452	4441
4	5117	5956	3999	6271
4	5861	68	6304	916
4	4734	4736	4886	5415
4	5305	2322	2324	2402
4	6205	6033	3964	4101
4	5468	2982	2992	235
4	6060	2246	4441	2138
4	4100	4101	6205	5988
4	6089	2565	2521	2522
4	5256	3008	3019	3009
4	3965	5992	5468	3963
4	4283	4442	5783	4444
4	5171	576	3036	575
4	4200	2989	2990	2979
4	4388	2989	3000	2990
4	5868	233	3012	232
4	5304	5424	5300	5302
4	4388	2991	2990	3001
4	6281	5767	2968	2969
4	5992	235	5468	3963
4	3963	235	2992	234
4	4099	5115	5260	6193
4	6033	3964	4101	6260
4	5869	1598	233	232
4	4956	6119	5943	6279
4	2991	5940	2981	2992
4	4569	5976	5980	4871
4	4563	4559	5963	6230
4	4589	4894	5110	2712
4	6191	2230	2339	2233
4	5589	5470	5590	5208
4	5134	2332	2413	2330
4	4917	4853	4920	4918
4	5657	4932	4917	4933
4	6238	916	6239	902
4	2995	5931	3005	2994
4	5642	2330	2410	2327
4	4132	4976	4974	5928
4	6063	2995	2996	2985
4	4914	5842	5832	4915
4	4815	4820	4142	5578
4	6289	6186	6114	5842
4	5007	577	576	2711
4	2215	4548	2325	2327
4	3831	3837	3835	4066
4	3935	5374	4046	5477
4	5931	2995	3006	2996
4	4392	3026	3027	3016
4	3935	4046	5374	5476
4	6190	2475	2476	2528
4	5774	3005	3016	3006
4	6040	2997	2986	2996
4	5050	5478	5946	5053
4	4044	4674	3936	3930
4	5651	2998	3009	2999
4	4708	3006	3017	3007
4	4866	4391	3027	3028
4	5236	5248	4066	3837
4	5381	4833	2833	2832
4	5190	2833	4827	6225
4	5187	5192	5188	5198
4	4102	6303	6193	5822
4	4611	4612	4546	4548
4	5171	2715	5110	2711
4	5861	68	916	69
4	4388	2999	3000	2989
4	5194	5318	6092	5385
4	5616	4832	6093	6249
4	6093	5616	6249	2831
4	4668	5140	5858	5143
4	6078	231	3032	230
4	5257	3000	2999	3010
4	5258	3009	3020	3010
4	6093	2831	6249	2832
4	4439	2248	5740	5014
4	4388	2990	3000	3001
4	4344	5776	5775	5514
4	5588	4268	4265	4368
4	5940	3002	2992	2991
4	6260	3000	3011	3001
4	5987	6116	5990	6181
4	5451	4957	6038	2389
4	4723	2988	5872	2987
4	4386	3964	3966	5940
4	5608	6142	4573	6180
4	4182	182	3013	181
4	4820	180	2993	179
4	4879	2726	2721	2725
4	4506	2724	2729	2725
4	4224	4220	4871	4870
4	4264	4267	4368	4268
4	5777	6138	6246	5775
4	4221	4225	4219	4229
4	3945	3946	2071	3858
4	3859	2071	3945	2176
4	5362	5546	5816	4788
4	5838	5645	5952	4941
4	5612	2727	2723	573
4	4184	3003	3014	3004
4	6075	5861	5860	6074
4	4506	2720	2725	2721
4	3859	521	2770	520
4	4589	2717	2713	2712
4	6292	3004	3005	2994
4	2730	4605	5607	2729
4	6292	3004	3015	3005
4	4392	3016	3027	3017
4	5642	2327	2237	2330
4	5258	3019	3020	3009
4	5171	3037	5059	3036
4	3005	2994	5931	6292
4	4548	2237	2327	2215
4	3859	3861	2073	2072
4	4706	3007	3018	3008
4	4723	4707	2988	2987
4	2325	2327	4548	4546
4	3859	2073	3860	2766
4	5296	2573	6190	2531
4	3859	2766	2770	521
4	5860	5861	917	69
4	5257	2999	3009	3010
4	5098	4396	4397	4401
4	5088	5802	5001	5197
4	6271	2241	2140	2141
4	6158	3018	6087	5788
4	6260	3010	3021	3011
4	5088	5197	5001	5005
4	4093	3873	6107	3041
4	5088	5081	4346	5802
4	5423	5426	5955	2472
4	3008	6158	5256	3019
4	6260	3010	3011	3000
4	5085	5087	4299	5083
4	5085	5086	5369	5876
4	5868	3012	3022	232
4	6034	3011	3022	3012
4	4351	4350	5606	4352
4	6269	3002	3012	233
4	6259	6260	3020	4175
4	4396	5095	5099	5097
4	6078	231	5102	3032
4	3964	3011	3012	3001
4	2730	2734	2729	5607
4	5774	2996	3006	4708
4	5612	573	572	2727
4	4597	2723	2728	2724
4	4318	4322	4320	5607
4	4607	2732	2733	2728
4	5198	5497	4290	5188
4	5089	5096	5498	5635
4	5456	6275	6034	5868
4	5447	5465	5982	5983
4	5667	889	181	890
4	4099	4102	5260	4390
4	6292	3014	3015	3004
4	4646	2237	5994	4612
4	4390	4389	3964	4386
4	5424	5423	5823	5300
4	4603	3015	3026	3016
4	6063	2996	2986	2985
4	6303	6089	4102	5991
4	5784	4442	5936	6115
4	3031	3021	4830	4174
4	6116	5990	6182	6117
4	4708	3016	3017	3006
4	4706	3017	3018	3007
4	5423	5426	2472	2475
4	5468	5467	5992	3965
4	6034	4448	4175	4447
4	4830	3021	3032	3022
4	3962	2680	5720	6301
4	5886	5932	395	1662
4	5354	4239	4240	4276
4	5553	4373	4339	4342
4	5788	3029	3019	3018
4	5438	2140	2241	2243
4	5553	4373	4371	5654
4	5567	5210	4368	4369
4	4175	6034	6260	3021
4	4239	4061	5344	5274
4	6040	6063	5611	2996
4	6099	1597	3953	1598
4	5943	2463	6119	4957
4	3955	6111	6078	5102
4	5854	3029	3030	3019
4	4382	4240	4275	4540
4	6260	3020	3021	3010
4	2737	4320	4607	2733
4	888	6240	6238	5794
4	2729	2728	4606	2733
4	5794	4578	5632	888
4	6299	6212	6311	6293
4	6248	7	2735	2731
4	4153	4323	6245	4154
4	4493	5603	6300	5612
4	4506	4879	2721	2725
4	6248	120	2735	7
4	5997	2630	2631	2616
4	5058	4144	5063	5064
4	5056	893	907	892
4	2419	5910	5989	5670
4	6150	5699	176	2953
4	5215	5699	5057	5183
4	4975	906	921	920
4	6255	6007	6006	6073
4	5027	388	2015	1631
4	5031	1632	387	2029
4	5031	2029	387	2015
4	4212	5891	4209	4949
4	4964	1941	5885	1959
4	5483	1632	1633	1626
4	5879	5664	4412	2974
4	5889	2537	5952	5951
4	5111	2454	2516	2503
4	4525	4529	4535	4530
4	6154	1914	5324	1871
4	6281	2968	2979	2969
4	5561	5536	6136	6135
4	6010	2570	5580	5533
4	5964	3945	2228	5925
4	2774	520	3859	2770
4	4951	6119	6118	2514
4	6156	5982	5993	1601
4	6117	6119	2517	2514
4	2561	2557	6182	6118
4	5160	2677	2673	2672
4	5008	3915	3923	2137
4	5833	5009	2674	2678
4	4656	2299	2268	2257
4	5737	5414	6227	2925
4	5092	2752	2756	2753
4	5979	174	2933	173
4	5617	5576	4914	5532
4	4494	6298	4184	4182
4	5603	5747	6298	3024
4	4653	5059	3026	3036
4	4546	2237	4612	5642
4	4492	4495	4604	4582
4	4588	5395	4589	4894
4	4184	6298	3014	3013
4	4808	5886	1662	5932
4	4184	4583	4601	5747
4	3947	3943	3940	5033
4	3939	3940	3943	4542
4	5763	2262	5692	4777
4	4376	5343	1820	5949
4	5638	2592	2560	2547
4	5947	2539	2541	2488
4	3866	2436	5336	2363
4	5412	5417	5416	5418
4	4106	1940	1710	1706
4	4618	6067	4619	4714
4	5502	5390	1620	1627
4	4211	3843	4754	4755
4	374	1613	4106	1614
4	5483	1633	1634	1627
4	4947	2205	4949	4950
4	5067	1997	5068	4158
4	2355	4530	2272	4514
4	6056	4514	4535	2379
4	4503	1978	2038	1977
4	5105	6068	5509	2264
4	5327	1953	5326	6043
4	5127	5126	1919	1918
4	6110	4670	4629	6057
4	4690	2260	2134	2133
4	5326	1928	6042	6043
4	4690	2037	5801	2036
4	4070	3840	2357	2278
4	6195	5801	2037	1978
4	1894	4807	5887	5886
4	6042	4673	5476	6163
4	5049	2879	2883	2880
4	3833	3834	4069	2120
4	4247	5111	5689	4523
4	5323	1946	5325	5327
4	2124	2228	5964	3945
4	4904	2333	4905	2335
4	5837	5414	2925	2924
4	3860	2769	2770	2766
4	5299	3946	3858	2774
4	5413	2934	5415	2944
4	5474	1763	1703	1704
4	4842	1644	1643	1648
4	3849	4821	4754	4753
4	4840	1906	1815	1860
4	5814	1763	5474	1704
4	5929	1655	1654	1659
4	5404	5184	4679	5795
4	4814	1660	1655	1659
4	5887	1894	1702	1858
4	4867	2438	2500	2445
4	1941	4960	4964	5885
4	4754	4753	2544	5677
4	4860	4632	4249	4437
4	5324	5884	4963	1948
4	5236	3837	4507	5716
4	4258	1960	1933	1931
4	4704	1961	5139	1932
4	5372	5405	4741	5409
4	6315	6283	582	2799
4	4122	4117	4294	5601
4	5780	6315	6145	6144
4	6283	583	2912	582
4	6283	2912	583	2911
4	5471	2736	2741	2737
4	5113	5022	2339	6191
4	5348	1869	1850	1895
4	5948	1850	1869	1868
4	3822	4737	5682	5680
4	5866	5279	5491	4204
4	5718	4367	5843	2540
4	5834	1773	1766	5328
4	4366	2492	2427	5006
4	3894	5037	3812	3896
4	3991	6134	3989	3990
4	5204	5037	1855	1875
4	4594	4596	5202	5203
4	1698	4149	4150	1694
4	3894	5037	3896	5039
4	3981	5902	5713	6071
4	5037	5684	1770	1875
4	3989	2665	3924	2666
4	3896	5037	5684	1770
4	4237	5863	2903	5862
4	4564	2777	2781	2778
4	3944	3946	2778	2774
4	4330	2635	2650	2636
4	5632	181	5121	5120
4	5214	6073	904	905
4	4319	2745	2746	2741
4	6208	5217	2207	2316
4	6211	887	4578	888
4	4578	183	4182	182
4	181	182	5632	4182
4	4930	5997	2630	2631
4	4820	2993	5577	4819
4	6255	6253	71	2603
4	4928	5020	5023	2632
4	6191	4171	5996	6209
4	5886	412	1662	413
4	6240	6239	901	902
4	6073	905	6006	919
4	5214	6006	6073	905
4	6255	2602	6005	2603
4	6007	5023	2618	2617
4	5018	6280	6299	6239
4	6244	4318	6245	2191
4	6075	903	5743	904
4	5113	2223	4577	2339
4	5172	4746	5885	5884
4	5241	4247	4250	5689
4	6220	5890	5893	2434
4	4469	4479	2271	2255
4	6215	2448	4861	2495
4	6215	2448	4867	4861
4	4516	4527	4525	4518
4	5615	2495	5613	4861
4	4659	5315	5649	5710
4	3985	1695	3895	4738
4	4462	5334	5335	4463
4	4496	343	4364	342
4	1822	5039	5037	5040
4	1855	1822	5204	5205
4	1781	1822	5205	5640
4	3990	6070	2280	5439
4	4594	6069	5201	4595
4	5108	2360	5712	6151
4	3896	1816	5039	5037
4	6097	5947	2539	2541
4	5950	1824	5949	4358
4	5886	396	1702	413
4	5598	2930	2941	2931
4	2491	2441	5112	4984
4	4778	2429	2390	2490
4	6001	4710	1932	1901
4	5765	5811	4483	4273
4	5690	4778	2490	2429
4	4704	1932	6001	4710
4	5240	2298	5970	2273
4	4482	4488	1886	1887
4	5765	4710	6001	1901
4	1938	1947	4685	4686
4	4863	2549	2550	4864
4	5886	1702	5887	1894
4	4312	4717	5815	4724
4	3884	3897	3890	3886
4	5945	1645	1641	1640
4	5403	5574	1916	1975
4	4539	2942	5500	2952
4	4119	2249	6285	4378
4	6284	116	2747	117
4	4220	4868	2793	2794
4	3926	3873	2691	581
4	6078	6111	6107	3032
4	6078	230	6062	231
4	6284	6262	5856	5831
4	6107	3042	3031	3041
4	4287	3873	3041	580
4	5762	5233	5565	5763
4	4541	5883	5728	5563
4	4842	4841	5945	1648
4	1817	5000	1906	4314
4	4807	1663	1774	1664
4	4807	1663	1894	1774
4	5855	5167	1639	1638
4	4098	4091	5874	2438
4	4074	5401	4802	4071
4	5874	2498	2362	2438
4	4863	4861	4867	2549
4	6261	6288	5831	2595
4	1899	1961	4258	4704
4	5986	5819	4095	408
4	5461	1959	5460	4964
4	4313	5978	1733	5985
4	5978	1733	1786	409
4	6261	2747	5831	6288
4	3835	3934	4065	4064
4	6261	5856	6284	927
4	5204	1855	5037	1822
4	5204	5037	1875	5684
4	6028	2658	6071	2654
4	6261	6284	2747	117
4	6079	3959	2683	2687
4	4814	4315	1660	4807
4	4814	1659	4807	1660
4	3885	4911	5404	3846
4	4718	5251	4813	2025
4	3817	5204	4594	6069
4	3988	2665	3989	2661
4	3818	5686	4593	2660
4	5684	5204	3812	3817
4	5341	1823	5522	1870
4	5068	1988	1998	1989
4	6113	1769	2006	2005
4	5067	1728	2007	2006
4	5490	4158	5067	5068
4	6125	2008	1727	1717
4	4509	6056	4045	4507
4	2891	2892	2895	4065
4	5374	4046	1847	5476
4	5053	5508	5045	2881
4	3832	4502	4079	4078
4	3936	5351	5476	6163
4	5053	5946	5508	2885
4	3935	4046	5476	5351
4	6195	2037	2038	476
4	5351	5476	6163	1845
4	6036	2890	4069	2023
4	4065	2892	2895	2896
4	2204	2041	5697	2043
4	5168	2017	2199	2283
4	5432	6183	4259	1958
4	6277	6232	297	1595
4	4617	1668	4614	5941
4	5509	5044	5105	5104
4	5052	5375	5048	1803
4	5374	4046	5477	1804
4	5245	5373	1838	1893
4	5374	1847	5373	5476
4	6106	5052	5048	1803
4	6106	1788	5477	1746
4	5693	2153	5756	2266
4	4517	5172	4633	4437
4	5844	4523	6296	2493
4	5643	4523	2493	2583
4	5615	4861	4864	2549
4	5615	2494	5613	2495
4	5615	2495	4861	2549
4	4886	6227	2935	2945
4	6230	6226	2229	2326
4	5547	5532	2532	2534
4	6234	5841	5842	2407
4	6086	4430	4424	6085
4	6011	1942	5935	1910
4	5867	5347	5808	5807
4	5284	5867	5279	5866
4	6082	1819	5330	5328
4	5971	1910	6011	5935
4	4651	5108	5821	2282
4	6173	1909	5808	1963
4	5006	2424	5376	2492
4	6011	5935	4029	5971
4	6112	5330	1819	1865
4	5971	1865	6011	1910
4	6277	6148	6278	6233
4	5187	4828	5189	5190
4	1909	5807	1864	6011
4	5992	234	6269	1600
4	6184	2497	2437	2363
4	2592	2580	5637	5843
4	2497	3866	6184	3871
4	6184	2437	2497	2501
4	6173	5808	4112	1963
4	1926	1957	5974	5908
4	5565	2256	2252	5762
4	6020	2425	5311	2382
4	3938	1836	3942	1837
4	5565	6050	6052	2252
4	5563	4488	5883	1839
4	5035	3949	5909	5672
4	4112	5851	1969	1963
4	2465	4336	2370	5311
4	3949	3938	1883	5672
4	4525	4052	4522	4529
4	4632	5643	5614	5615
4	6277	6316	6278	6148
4	5156	910	896	911
4	5155	897	912	911
4	1925	1890	5394	5393
4	4285	5506	5675	5905
4	3810	4023	5035	5034
4	5492	4197	5896	3820
4	5904	2285	2200	2288
4	5937	1937	5346	1944
4	4021	3807	6174	5820
4	4021	6052	6174	3807
4	4078	4083	4505	4079
4	4206	6168	5163	5715
4	4478	2032	2162	2033
4	4633	5129	5323	4916
4	4049	6041	5878	5721
4	3912	5721	6122	5288
4	2011	377	5721	2002
4	4213	4214	1812	1764
4	4108	5175	5388	5752
4	4213	1812	4214	5911
4	4687	1812	4214	1859
4	6128	5526	6155	1870
4	5067	5068	1997	1998
4	4692	2035	2161	2036
4	3907	3911	5911	4214
4	4070	5716	5248	2275
4	5509	2264	6110	2352
4	6277	2807	296	297
4	5698	2871	2875	2872
4	6044	6045	1922	1928
4	5373	5048	1838	1844
4	6057	6296	6110	2431
4	4628	4523	4251	6296
4	4493	2727	4597	5612
4	5337	3034	3035	3024
4	4582	4883	4609	4850
4	4949	2373	4754	5891
4	6277	2807	6316	296
4	5966	2219	5964	2154
4	5964	5963	2228	2219
4	2069	2778	3944	6096
4	2773	3946	2777	6228
4	6203	2771	6295	2775
4	5925	5964	5963	2228
4	3936	5374	5373	5476
4	4625	4630	4626	4038
4	6194	2275	6068	5248
4	5245	5373	5048	1838
4	6045	4676	5373	6042
4	6042	1888	5373	6045
4	5373	1888	5476	1847
4	5374	5048	1844	1788
4	4065	2892	4064	5353
4	4756	4156	4151	4844
4	5942	4759	4758	421
4	4989	5821	6151	6140
4	6139	4988	4463	4464
4	4377	1876	6086	1779
4	5867	6173	5808	4112
4	6173	1969	5935	1942
4	4988	6151	6139	6140
4	6140	5336	2436	2545
4	5333	5638	2499	2580
4	6140	5336	3866	2436
4	5922	5066	5322	6125
4	4688	4692	5801	4693
4	4514	2355	4535	2420
4	4663	2003	5687	2004
4	4742	6183	4747	4744
4	5885	1948	5884	1965
4	4753	2371	5892	2446
4	4307	5892	5893	5890
4	4522	4529	4521	6220
4	4746	1965	5885	5884
4	5953	2524	5955	5954
4	5305	2324	5871	2404
4	4590	5857	4174	5854
4	4588	5007	4866	4894
4	4706	6158	5256	3008
4	5069	6133	6152	6125
4	5325	1913	5326	1946
4	6125	1717	2009	2008
4	3934	5481	3835	3932
4	1907	4960	4964	1941
4	4687	4214	5916	1859
4	4963	5885	1941	1948
4	4438	6220	6215	5613
4	5870	5874	4867	2445
4	4089	5432	5461	4746
4	5478	2884	5479	2888
4	1915	5324	5520	4963
4	5330	1773	5328	1819
4	5971	1910	5935	1943
4	5331	5971	5391	1911
4	4406	4837	6161	5828
4	5478	5946	2889	5676
4	5826	2456	5751	6176
4	5828	5376	2488	5947
4	4178	5912	4179	4180
4	4186	4490	6081	5804
4	6085	5807	1864	1876
4	4496	342	4364	4365
4	6082	1864	6112	1819
4	6143	2558	2519	2577
4	4766	4992	4991	4990
4	5949	4360	4357	4358
4	4375	5347	4374	4376
4	5347	4374	1908	5807
4	5194	4832	5187	5193
4	5377	2303	5006	5805
4	5829	5393	5830	1873
4	5384	5079	5802	1768
4	6085	6112	1864	6011
4	3933	4504	5352	6029
4	5834	4353	5847	4349
4	5918	6232	5430	6065
4	4641	4700	4699	4694
4	4405	4836	5377	4749
4	1768	1724	5081	5802
4	4292	2824	5431	5306
4	4752	4751	5830	5393
4	5937	1944	1852	1937
4	4111	1962	6291	4109
4	5492	5379	6080	5904
4	4674	4675	5047	5482
4	4993	5343	4376	5949
4	5808	5807	1908	1909
4	3867	4156	5109	420
4	5675	1955	5506	5671
4	5810	1924	5672	1923
4	1673	1674	4197	4614
4	5958	3892	4681	4680
4	5920	2112	5921	2291
4	5924	5483	5487	1633
4	2291	2112	5921	2206
4	5920	2372	5921	6207
4	5921	6207	2372	2505
4	5488	6207	5178	5813
4	3850	4498	3841	3849
4	4755	6207	5921	2505
4	5880	77	925	78
4	5880	6309	77	2597
4	5880	6308	78	926
4	6213	911	926	925
4	4731	5196	5183	5062
4	5880	2596	6241	2597
4	6309	6307	5151	5153
4	4676	6043	6042	6045
4	6042	1928	6045	6043
4	6163	1921	1888	6042
4	1880	1888	6163	1921
4	5326	6042	1928	1921
4	6042	5373	1888	5476
4	5721	2011	1726	1731
4	4213	6122	4214	1764
4	6121	6041	2010	1726
4	5288	1731	1764	1711
4	4821	5892	5891	4754
4	3907	4214	3912	3911
4	5916	1814	5877	1862
4	4302	4521	4981	4305
4	5892	2290	5715	5891
4	5715	2210	5891	2290
4	4466	4050	4471	4475
4	4529	2432	4528	2434
4	6220	2434	5893	6215
4	4449	4520	5172	5885
4	5893	2448	6215	2434
4	6142	2234	6164	2151
4	6289	2403	6179	2401
4	4919	6187	2927	2937
4	6081	4490	4365	1715
4	4502	6160	4079	4505
4	1694	4149	4150	4155
4	5554	5555	5719	5277
4	4950	5891	5163	2210
4	5163	2210	5715	2281
4	5164	2195	2032	2018
4	4980	5165	4475	1993
4	5130	1922	6044	6045
4	4669	5482	4674	4670
4	4776	4481	4024	4780
4	5136	2877	2878	2874
4	1950	4744	5127	4748
4	1881	1882	5126	5226
4	6095	5127	5126	1919
4	5265	2870	2866	2869
4	4541	4543	5072	5504
4	5104	5077	5135	5074
4	5075	2867	2871	2868
4	5230	4672	4251	5239
4	5075	2871	1744	1736
4	5723	5047	5508	5507
4	5133	5136	5266	2873
4	5482	5509	6068	6110
4	5714	4999	1854	1900
4	5714	4999	5572	1854
4	5903	2443	4986	2368
4	5379	2285	2202	2200
4	5974	1926	5908	5237
4	5675	5674	5905	1934
4	5811	5765	1935	1900
4	5238	5974	5908	5237
4	5675	5506	1955	1902
4	5506	1923	5671	1955
4	4998	5905	5674	1857
4	5973	1962	6291	5674
4	2497	3874	6026	3871
4	5638	2560	6297	2497
4	4336	4334	4333	2502
4	5974	1891	5237	1892
4	5974	5392	4109	1929
4	4110	1970	4109	1929
4	1970	4110	4111	1969
4	4334	2501	3874	4333
4	5827	6161	5826	2513
4	5394	5392	5656	1890
4	6024	4798	5655	5237
4	6297	2497	3871	5638
4	5847	5527	1576	1590
4	4363	4496	4365	4490
4	4417	5319	4419	5464
4	4496	343	5703	4364
4	4049	6122	5877	4214
4	5878	1832	4055	5877
4	5878	1726	6122	5721
4	5965	5520	1877	1826
4	1904	1907	4961	4686
4	6122	5877	1814	1784
4	5923	6152	1717	6125
4	5381	5382	6093	2832
4	6092	1878	5318	5383
4	4405	5006	5377	5376
4	5497	5496	5198	5498
4	4833	2832	6249	2836
4	5557	5558	5393	1889
4	6225	2833	2834	2830
4	1776	1873	5384	1830
4	4347	6159	5001	4346
4	5190	2833	6225	2829
4	4385	2827	5317	5306
4	1714	1779	4360	4377
4	5347	4374	4376	1908
4	4360	4376	1820	5949
4	4178	5334	4426	4179
4	4148	1850	5948	5038
4	5703	4491	5464	5758
4	6124	6123	5869	6099
4	5453	3967	4439	4968
4	3913	3927	4656	6175
4	5650	5648	5741	5647
4	5740	5014	2248	2251
4	5353	2887	5479	5477
4	5008	2172	5014	2251
4	6157	6124	5457	4944
4	5452	5454	5451	4441
4	4830	3031	6107	3032
4	4668	2701	4667	2697
4	4392	4652	4600	5609
4	5253	5254	4390	5258
4	6260	4175	3021	3020
4	3958	2688	3959	2692
4	4701	4721	4702	5420
4	4446	4175	5836	4174
4	6055	6102	6060	6083
4	4824	5400	6229	4823
4	5400	5805	2253	2302
4	3935	4046	5352	5477
4	5496	2253	5805	2214
4	5399	5805	5400	2302
4	5308	5306	5382	2828
4	6225	2829	2833	2830
4	5002	5003	2427	2423
4	5383	1830	5384	1873
4	6250	118	6247	2743
4	4051	5322	4476	4472
4	5321	4055	4054	6132
4	5922	1999	6125	2000
4	4521	6220	4528	5890
4	4511	2300	2272	4514
4	4326	5761	4493	4578
4	4852	2411	5134	2332
4	4601	3014	5747	3015
4	5879	5919	4817	2983
4	5121	181	4182	3003
4	3003	4184	4182	4185
4	5704	4147	3896	1785
4	4147	1732	1785	1712
4	6250	6293	6311	2739
4	5683	5704	1719	3895
4	3896	5037	1770	1816
4	3896	5039	1816	1974
4	5038	3896	1785	1974
4	3812	5684	3896	5037
4	6225	2057	2830	2021
4	4289	2830	2826	2829
4	6250	118	2743	119
4	5308	4289	2825	2829
4	4289	2825	2829	2826
4	4292	2824	5308	2825
4	5035	5672	5909	5671
4	6250	6311	119	2739
4	3949	1883	5909	5672
4	5909	1891	5237	1926
4	5673	1891	5909	1884
4	5908	1923	5909	1926
4	4020	6170	6174	2426
4	5909	1923	5672	1883
4	4641	4698	2844	2845
4	4792	5427	6046	4799
4	3809	3948	5429	4637
4	3939	3938	3940	5563
4	5673	3949	1884	5909
4	6174	5820	3807	2354
4	6126	2943	4736	2944
4	5976	6224	6274	2784
4	5575	6221	4570	6108
4	2927	2916	6108	5575
4	3856	4556	5299	3858
4	4266	4265	5600	4268
4	5004	5635	5003	5002
4	4346	6159	5802	1724
4	6082	5328	1766	1819
4	4192	4490	4186	5804
4	5376	3825	4366	4367
4	4352	1592	5846	1578
4	4349	337	5798	1578
4	4615	3998	4613	1678
4	1683	1751	5408	5571
4	5572	4713	1854	1805
4	1678	5571	5408	3998
4	4195	5380	5379	4996
4	3996	5573	3998	5571
4	4336	2457	4335	2465
4	5569	1809	1751	1808
4	5714	1901	5765	1900
4	5812	6043	6044	1952
4	4746	5884	5323	1965
4	6044	6045	1928	6043
4	5323	1965	5884	1968
4	5327	1953	6043	1952
4	5432	1965	6183	1958
4	4258	1899	4257	1933
4	4436	4861	5615	5613
4	4748	1918	5126	5127
4	4687	5911	1812	1964
4	4013	4865	4091	5169
4	5892	5891	4754	2290
4	4684	5917	1971	5574
4	4685	1916	4684	1947
4	6136	5872	2978	2977
4	5897	1715	6081	1829
4	5610	5546	5425	5294
4	5549	4912	5534	5533
4	5816	5873	2977	2987
4	5297	5293	5296	5593
4	4545	5871	4548	4546
4	4447	6034	6260	4175
4	4588	5788	5436	4391
4	4668	2696	5143	2700
4	2475	2528	6190	5426
4	5582	2569	5953	5954
4	4249	4523	5844	5643
4	5326	1913	5340	1921
4	1914	5325	6154	5324
4	5326	1928	6043	1953
4	4045	6056	4514	4535
4	1766	1715	5804	5897
4	6075	904	6073	918
4	5019	5480	2620	2619
4	4924	4923	4581	4931
4	6238	888	5794	5120
4	6191	5113	4171	4577
4	6075	4923	5742	6073
4	4170	4921	5023	5742
4	4607	4320	4324	4325
4	5120	888	5632	182
4	5139	6001	1932	1951
4	5689	4778	2390	2454
4	5690	2422	4775	2429
4	2454	2516	2487	5111
4	4480	4482	4484	4488
4	4518	4522	4632	4515
4	4774	4778	2429	2390
4	5245	5246	1882	1840
4	4489	4482	1886	1924
4	2269	2274	5096	5098
4	5096	2263	5498	2350
4	6188	2274	5499	5096
4	5897	6082	1829	6086
4	4740	2813	2817	2814
4	5004	5098	5635	5746
4	1766	339	5834	5804
4	4740	2814	2818	2060
4	5962	6002	2216	4908
4	4108	5752	4106	4105
4	4106	1708	1706	374
4	4106	1761	1706	1708
4	5894	1905	5917	5702
4	5418	5165	2018	5162
4	5502	5752	4105	1620
4	3899	5177	5494	1629
4	1833	1718	5681	5682
4	5680	2652	435	2651
4	5698	2872	5075	2871
4	5043	5375	5246	5245
4	5265	2046	2866	2044
4	5077	6098	5078	5246
4	4750	4825	4831	4829
4	5377	2302	5399	2387
4	5331	1872	5330	1865
4	4351	4350	4341	4401
4	6082	4425	5328	5330
4	4427	5637	6097	5638
4	5858	4287	4645	2699
4	6259	5854	3020	3019
4	5857	3040	3029	3039
4	5858	2699	4645	4591
4	4645	4591	2699	2703
4	4826	3039	4645	4660
4	4826	3039	4660	3038
4	3040	4287	4645	4093
4	5437	5956	2235	5303
4	4251	6296	4523	5241
4	5230	5239	5240	5755
4	6106	2879	460	2883
4	6253	6007	2604	2603
4	4921	5214	4929	6007
4	4849	5121	5632	4182
4	5132	6290	5015	5989
4	5799	5796	5888	4852
4	6255	2603	6005	6007
4	3999	4001	5115	5300
4	4654	4652	4392	5609
4	5436	5854	6158	5788
4	5537	4601	5774	6292
4	4273	5811	5714	5765
4	5810	5671	1923	5672
4	4024	4020	6050	4775
4	5374	5479	6106	5477
4	5714	5506	1902	1900
4	6037	1845	5351	5340
4	5351	5340	1845	6163
4	6106	5049	5479	5048
4	4046	5476	5351	1845
4	4068	3931	4508	4164
4	4066	6036	4069	5717
4	6194	2275	5248	5716
4	5711	6058	1767	347
4	3927	4656	2299	2268
4	5900	1568	6084	347
4	6106	1803	5048	1788
4	4965	4657	4655	4966
4	5159	5900	5875	5706
4	2013	2110	5813	2030
4	5813	2372	6207	2111
4	5487	2013	2016	2110
4	5924	5387	5487	5483
4	5175	1622	5286	5388
4	5417	2012	5418	1637
4	5722	2030	2111	2014
4	5488	6207	5920	5921
4	5417	2109	5416	5418
4	4054	4980	5923	6041
4	4466	4470	4472	4473
4	4472	4470	5070	4473
4	4466	4474	4476	4475
4	5321	5520	1826	1821
4	4054	5878	4055	5877
4	4627	6044	5812	6043
4	5239	5755	5509	2294
4	5812	5125	6044	4627
4	4629	5844	6296	6057
4	6194	6056	2353	2383
4	6194	6057	6110	2353
4	6110	2431	6296	2428
4	4627	6043	5326	6042
4	5133	5135	5267	5136
4	4247	4243	4242	5111
4	2487	5241	5689	4523
4	2549	4861	4864	4863
4	5643	2583	4864	2516
4	5812	1968	1967	4747
4	1918	1950	4748	6044
4	5126	5130	1918	6044
4	5812	4748	1967	1952
4	1949	5127	1950	4744
4	5139	1949	5127	1951
4	6106	2883	5049	2879
4	5309	5820	5244	5311
4	3808	3807	5907	2265
4	4699	2846	2842	2845
4	5399	5400	2259	2302
4	5049	5052	6106	2879
4	6135	4856	6091	2967
4	6010	6066	2568	6100
4	5873	5872	2987	4723
4	4117	4122	4294	2805
4	5410	4115	2805	2809
4	6144	4294	2800	2804
4	6144	2803	2800	2799
4	4465	6233	6065	6232
4	5780	5778	5779	2922
4	5471	4607	2737	4324
4	6300	5760	6210	5761
4	5239	5509	2352	2294
4	5236	3931	3837	4066
4	6068	6110	2264	2353
4	4629	6296	5239	6110
4	4511	4507	2301	2300
4	3929	5481	4066	5248
4	5756	2224	5509	5755
4	5507	2020	5508	2019
4	5509	5755	2224	2294
4	5239	2428	6110	6296
4	3998	5407	5570	5408
4	2200	5379	3820	2047
4	4197	3820	5379	4614
4	5493	3874	6009	3870
4	3805	4022	4021	6052
4	4196	4199	4205	4998
4	4007	4984	5263	5380
4	4246	4485	4983	5282
4	4020	6052	2346	2345
4	6272	6170	5903	2590
4	4768	5947	5376	5828
4	3826	3828	5005	5001
4	4835	4979	4409	4978
4	5829	5830	1872	1873
4	6092	6093	5616	4832
4	3829	5331	5330	6112
4	3826	4339	4373	4342
4	3867	5821	3868	5109
4	5347	5346	1944	5348
4	6217	5674	6291	6090
4	6090	4111	6291	5866
4	4889	6297	6026	3871
4	4410	4112	6291	4109
4	1944	1963	1937	5808
4	423	1685	1758	1755
4	3870	2437	2501	2440
4	4003	5379	4195	5380
4	4110	4112	1969	5935
4	4003	5379	5941	4614
4	5319	4359	4356	5703
4	5806	2358	3919	2433
4	3927	3915	4656	2268
4	5649	1570	5901	345
4	4450	4453	4459	4454
4	6114	6289	5600	6104
4	2968	2958	5767	6136
4	5295	5549	2572	5548
4	6218	6089	4620	2565
4	5590	6103	6104	2468
4	4539	239	4538	4536
4	5588	6104	5591	5590
4	5584	5598	2940	5597
4	6268	5783	5782	2961
4	5372	5405	5369	4741
4	6158	3018	5788	3019
4	4550	4631	4553	5437
4	4391	4392	5059	3027
4	5857	3039	4645	3040
4	6106	5052	1803	1745
4	4550	4631	4646	4548
4	5171	4894	5110	5059
4	6112	5898	5331	5971
4	4757	4761	4759	4758
4	5329	1827	5330	1872
4	6249	2835	2836	2832
4	5394	1925	5392	1890
4	5331	5329	5330	1872
4	5394	5656	4899	1846
4	5191	5384	5830	5383
4	5391	1943	5971	5935
4	4091	2546	2364	4863
4	4859	4863	4864	4861
4	5892	2290	4754	2446
4	2283	4091	4098	2438
4	4800	4314	4839	5000
4	4264	4267	4381	4369
4	5584	5586	2940	2939
4	4864	5615	2550	2583
4	4748	5125	6044	5812
4	4745	4747	4746	5323
4	4014	5432	4258	4259
4	4867	2546	4863	2549
4	5616	4832	4831	6252
4	4699	2841	2845	2842
4	4726	2839	2843	2840
4	3949	4799	1835	1837
4	5973	5674	5675	1934
4	5908	1955	5675	5671
4	5675	5506	1902	5905
4	5675	1934	5905	1902
4	6174	6170	2430	2426
4	5309	5312	4338	4335
4	1930	5974	1957	4109
4	5237	1926	5908	5909
4	6300	5603	3023	3033
4	5747	6298	4493	5603
4	4578	3023	4182	183
4	4492	4493	4607	2728
4	5377	5006	2303	2424
4	5377	4749	5399	5805
4	4837	2342	5751	2392
4	5377	5006	2424	5376
4	2558	5719	2519	5555
4	6106	5052	5049	5048
4	5783	5599	5782	2951
4	3827	5328	6159	4347
4	4889	6026	4333	3874
4	2427	2351	5003	5006
4	5635	5003	2423	2350
4	4836	5377	5399	4837
4	4497	4191	4363	4187
4	5805	2303	5006	2351
4	2489	2427	4366	2492
4	5558	1878	5383	1873
4	4381	2391	5568	2393
4	2168	5845	5882	2265
4	5830	1873	5558	5383
4	4899	1846	5656	5428
4	5399	2342	4837	2387
4	1796	6252	4901	4899
4	4824	5400	5397	6229
4	1912	1925	5391	5393
4	4837	6161	2392	5751
4	5432	1958	5460	1959
4	4012	4010	4009	4255
4	5459	5978	4259	5986
4	5168	4091	4098	2283
4	4104	5170	407	5819
4	5874	2438	4867	2445
4	5874	2438	4091	4867
4	4744	5127	5139	1949
4	4005	2204	2367	5262
4	4241	4778	5112	5690
4	4194	3996	4196	4195
4	406	5170	4013	407
4	4618	1676	5407	1677
4	4381	4119	2244	4228
4	4743	4252	4244	4744
4	4862	2503	4524	2548
4	5741	5649	5650	1570
4	6157	5869	1598	1599
4	5647	1570	5650	1571
4	5333	4463	5335	5334
4	5710	345	5901	346
4	5900	5710	5901	346
4	4459	4453	4356	5464
4	5008	3915	2257	4656
4	5089	5096	4301	5498
4	4824	4827	6229	5397
4	5174	4948	5177	5722
4	3898	3904	3900	3903
4	5496	2214	5805	2351
4	5635	2350	5498	5003
4	4587	4585	2705	4666
4	4588	2707	4894	2708
4	4585	4586	4665	4587
4	4093	4174	5140	5857
4	5857	4174	5140	4590
4	4588	4826	4591	4660
4	4826	4645	578	2703
4	5053	5508	2881	2885
4	5374	1788	6106	5048
4	5236	3837	5716	5248
4	5373	4676	5245	5051
4	5104	5106	5135	5045
4	6068	6110	5509	2264
4	5240	5241	4779	2298
4	5044	5105	5106	5508
4	4423	5444	2449	2506
4	5638	2580	5637	2592
4	4464	2444	2496	6141
4	5913	2587	5443	5277
4	3866	3871	5336	3872
4	6117	6119	6279	2517
4	4415	5465	4946	4421
4	5913	4191	5443	5444
4	5230	5239	5755	5509
4	5230	5228	5128	5043
4	5245	1893	5130	6045
4	5375	5245	1838	1840
4	5126	5226	1882	5130
4	5698	5075	1736	2871
4	4866	3037	5007	3038
4	4588	5007	4894	2707
4	2319	2241	5115	2239
4	5171	5110	4894	2711
4	4381	2247	4119	2307
4	4493	5747	4495	4494
4	4866	5788	4391	3028
4	5171	4653	5270	3036
4	5171	4653	5059	5110
4	4381	2307	4378	2391
4	5690	4774	4778	2429
4	5765	4483	1954	6001
4	4775	2346	6050	2348
4	4020	6050	4775	2346
4	4269	4286	4194	4271
4	4777	2348	4775	6050
4	4020	2345	6174	6052
4	2995	5931	2994	5542
4	5873	5546	6091	4722
4	5628	5766	2628	2642
4	4263	4119	4381	4228
4	4810	4942	4936	2529
4	4969	2616	4970	6005
4	4264	4267	4262	4381
4	4172	4581	5119	5137
4	4185	5930	4819	2993
4	5001	4346	6159	5802
4	5096	5499	2263	2274
4	5198	5805	5003	5496
4	3827	6159	5328	5330
4	5085	6016	5368	4350
4	4425	6082	5897	6086
4	5498	5496	5003	2351
4	5006	2351	5003	5805
4	4302	4449	4431	4962
4	4011	4013	4865	4091
4	4049	4214	3912	6122
4	4862	2550	4524	4864
4	4303	4961	4963	4520
4	4259	5459	5460	1897
4	4747	6183	4746	1965
4	6250	6311	900	119
4	4366	5654	2423	2489
4	5555	5719	2519	5653
4	3825	4366	5006	5376
4	4367	5653	4366	2489
4	4276	5847	5527	5773
4	1773	1723	6159	4347
4	4279	5809	4278	2452
4	4397	4279	4400	5098
4	4373	5654	4366	5653
4	5004	5746	5635	5002
4	5746	5098	2385	2378
4	4366	5653	5654	2489
4	4058	4059	4060	4539
4	4435	4062	5345	5604
4	4415	5445	4945	5983
4	5653	5555	2510	2519
4	6311	2739	120	119
4	5405	5410	5409	5372
4	5568	5604	4369	2464
4	4387	6115	5784	5936
4	2969	5767	6197	6281
4	4701	4721	4703	4702
4	5421	5954	5582	5953
4	5420	6197	4720	6022
4	6250	2739	6251	6293
4	5652	6022	2988	2998
4	4668	2700	5143	5858
4	6260	3010	5258	3020
4	4544	5564	3941	2856
4	3949	5909	1883	1884
4	6289	6103	6186	2471
4	5660	2948	5662	5661
4	6258	6066	2566	2567
4	6289	6104	6103	2471
4	6186	2471	6103	2525
4	5583	5662	2939	2938
4	6221	5575	6187	2927
4	5777	5775	5778	2920
4	5532	2480	6234	2478
4	4283	5783	5500	5599
4	4912	4913	5535	4915
4	5660	5661	6136	2958
4	5782	5824	2960	2950
4	4860	4012	4011	4015
4	4627	4916	6043	5812
4	5230	5043	5128	5046
4	4672	5239	5509	6110
4	6311	6212	6248	6293
4	5241	2428	5239	6296
4	5239	2352	5509	6110
4	4318	4322	5607	6245
4	4506	4605	2725	2729
4	6311	2735	6248	120
4	5607	2734	4318	6244
4	6244	6245	4318	5607
4	4154	6245	4153	2220
4	4805	5855	4806	5929
4	4322	6245	2191	2220
4	4320	2737	4319	2738
4	5578	5667	5121	180
4	5121	889	5120	181
4	6055	6101	6102	6083
4	6034	5868	3012	3022
4	4992	4995	4994	5313
4	6008	1787	1732	422
4	4990	3894	4151	4148
4	3844	5959	5677	4755
4	5038	3896	1974	5039
4	3894	5038	5039	3896
4	5280	4766	4762	5348
4	4176	4179	4189	4180
4	2376	2375	4454	6175
4	4357	5314	5313	4358
4	6081	4377	6086	1779
4	4365	4490	341	1715
4	5333	2545	5335	4463
4	5271	5277	5272	5555
4	3919	4452	5806	4455
4	5589	5659	5588	6114
4	4622	5955	5953	5822
4	6197	4200	2979	2989
4	4388	4200	2989	2990
4	4388	4389	3001	3000
4	4387	2991	4388	5940
4	5470	6100	6103	5590
4	5206	5782	5599	5597
4	4388	2999	4389	3000
4	5847	1576	5834	1577
4	4339	5809	5746	5654
4	5553	5555	5809	5654
4	4986	4857	4270	5380
4	6047	3941	3937	5564
4	4774	4778	2390	4779
4	5690	4775	4774	2429
4	4984	2491	5690	5112
4	4246	6095	5127	5126
4	4195	5492	5904	5379
4	1672	1673	4006	1667
4	4003	5941	4005	4617
4	1668	4614	4006	4617
4	4007	4004	4711	3995
4	3997	5572	4713	4710
4	4005	5941	5380	2201
4	3995	4003	4006	4613
4	4858	5690	4984	4985
4	6001	4983	4704	4710
4	5202	4595	1753	2663
4	5013	5009	4655	5833
4	5668	2449	4460	2542
4	4455	5806	3919	2293
4	5806	2433	3919	2293
4	6141	2433	5806	2293
4	5647	1585	6157	1584
4	6154	5520	5321	1821
4	2420	2300	2379	4514
4	6133	1823	6128	5522
4	4692	6048	2161	2035
4	5069	6133	5067	6128
4	5522	1821	6152	1823
4	4801	4842	4841	5945
4	6133	6152	1717	1780
4	4054	5923	6121	6041
4	5321	5520	4055	1826
4	4980	1992	4475	4474
4	5321	6132	6152	1821
4	6232	298	2815	2811
4	4465	6278	2811	2812
4	4465	2816	2812	2815
4	6277	4465	2811	6232
4	6232	298	2811	297
4	6277	6232	2811	297
4	6277	2811	4465	6278
4	5332	5283	5336	5637
4	6141	4455	4464	2444
4	5647	5758	5703	5319
4	4991	6140	5335	5336
4	4358	1772	4360	1713
4	4274	1591	4540	1605
4	5187	5195	5191	5197
4	4413	4415	5446	4414
4	6286	1588	5524	1602
4	5450	5984	2552	2553
4	5404	4679	5486	5795
4	5557	4899	6252	1846
4	5908	1957	5973	5675
4	4331	4333	4334	3874
4	6013	1810	1852	1758
4	6090	1857	5674	1898
4	5569	4999	4998	1853
4	5937	4759	6013	1852
4	5937	1898	5938	6090
4	5325	5324	1914	1946
4	5324	1948	4963	1915
4	5321	6132	1821	1826
4	6128	5526	1870	1818
4	2356	2355	4528	2255
4	4514	4530	4535	2355
4	4474	4478	4466	6120
4	4512	4470	4467	5644
4	6048	2255	4467	2272
4	4469	4528	4467	2255
4	5152	5321	5520	4055
4	4307	4981	5890	5893
4	4468	4512	5521	4472
4	3867	4989	5821	5109
4	5347	1908	5343	5348
4	5359	4464	6139	6072
4	3887	4526	4839	4840
4	4989	5821	5109	5108
4	5343	1820	5949	1824
4	5343	1869	5348	1908
4	5948	1824	5343	5949
4	5948	1850	5348	1869
4	5817	5166	4716	4316
4	5870	5892	4753	2371
4	4753	2544	5677	5815
4	2446	2544	4754	4753
4	4718	2126	4715	5251
4	5168	406	5169	2199
4	5459	4086	4087	4088
4	6247	6312	2743	564
4	6312	564	2608	565
4	5025	565	6312	2622
4	6299	6280	5026	2608
4	915	6304	6239	6280
4	5036	5025	566	2745
4	6210	4578	6211	887
4	6251	6293	2739	2740
4	3805	3810	3806	5034
4	3805	5565	5033	4022
4	1926	1891	5237	5974
4	5907	2354	3807	5820
4	6020	2347	5907	5820
4	5906	5749	4697	2270
4	5907	2265	3807	2354
4	4900	2835	2839	2836
4	3833	5676	2893	2894
4	3833	3832	2120	2894
4	2163	6068	5723	5507
4	6216	1975	5403	5401
4	5050	5478	2884	5479
4	4070	5716	2275	2320
4	5047	5508	5105	5044
4	4503	4157	1987	1986
4	4692	2036	5801	4693
4	2290	2210	5891	2205
4	4308	4469	6168	5890
4	4307	5715	4821	5892
4	5163	5715	2210	5891
4	6168	2162	4477	2281
4	2121	2034	6120	2033
4	4210	5916	4214	5877
4	4050	4471	4308	4053
4	1915	1877	4963	5520
4	2359	2292	6168	5890
4	5960	1975	5475	1973
4	4304	5965	5916	5877
4	5826	2457	4333	2456
4	5827	2513	5826	4333
4	5309	4335	6020	5311
4	4979	5394	5391	5392
4	4335	2382	6020	5311
4	5391	4408	5935	4029
4	5750	5749	2296	2308
4	5750	5785	4697	2308
4	5750	5749	2308	4697
4	5961	1763	5474	5814
4	1611	1707	1612	5814
4	5365	5816	6091	4880
4	5617	5621	5576	5618
4	5879	2974	5542	5664
4	5295	5548	2572	2575
4	4942	2473	4809	2417
4	5646	5296	2574	5295
4	3963	3965	6275	3964
4	4769	2504	2485	2416
4	4794	5196	4940	5665
4	5879	4412	2973	2974
4	4939	5738	4936	2581
4	5226	6095	5126	1881
4	1789	5078	6098	1840
4	5225	5692	5693	5970
4	6098	1840	5078	5246
4	5814	5961	1763	1762
4	4911	5184	5814	5474
4	5245	1882	5246	5130
4	5051	5048	5245	5373
4	4705	4619	6067	4714
4	4776	4774	4779	4778
4	4484	4482	4483	1927
4	4247	4242	5689	5111
4	5139	5282	6001	1951
4	5457	5869	5868	6099
4	4100	5789	6303	6279
4	5451	2246	4441	5454
4	5462	5759	6157	5647
4	5124	2396	5944	2313
4	4447	4101	4390	6260
4	6260	6034	3011	3021
4	6275	3002	3964	3012
4	4415	4951	4414	6038
4	4792	3948	4793	4637
4	5814	5795	1611	1610
4	5563	3942	3938	1836
4	5691	2044	2042	2122
4	5565	5510	4542	5233
4	5243	4793	5035	5034
4	5035	3949	5673	5909
4	4019	4985	4020	4775
4	6095	1919	5126	1881
4	6050	4777	5234	4775
4	4544	2856	5429	5564
4	4489	3938	5672	1883
4	4020	2346	6052	6050
4	6174	3807	6052	2345
4	6052	2252	6050	2346
4	6052	2345	3807	2250
4	5247	5749	5906	5907
4	5969	2250	6052	3807
4	4641	4792	4637	4638
4	4021	6174	4020	6170
4	4286	5905	5674	4998
4	6193	2469	5789	2397
4	6258	6219	6218	2565
4	6172	3953	1597	1583
4	4387	6115	5936	2981
4	3951	6035	5102	6099
4	5868	233	6269	3012
4	6034	3021	4448	3022
4	4381	4267	4262	4228
4	4381	4380	4379	5567
4	6146	5769	1608	242
4	4351	5846	4352	5606
4	6223	4223	4344	5775
4	5411	6285	2249	5094
4	4379	4381	4119	4378
4	5368	5371	6147	5876
4	6220	6215	5613	2495
4	5893	5890	2374	2434
4	6220	2434	4528	5890
4	6215	5613	2495	4861
4	4088	5460	5432	4259
4	2448	2445	5870	4867
4	6220	4529	2495	5613
4	4436	4632	4437	4517
4	4303	5520	5324	4963
4	4520	4963	5324	5884
4	4529	4528	2432	2355
4	4253	5131	4250	4246
4	5814	1610	5184	5795
4	4530	2255	4467	4528
4	2255	2272	4530	4467
4	4043	5340	5341	6155
4	2419	2344	5670	2317
4	4927	5989	5138	5132
4	5610	5294	4787	5362
4	2339	5113	2223	4851
4	5656	5237	1841	1892
4	5656	1841	5428	1846
4	1610	1704	1705	5814
4	5656	1890	5392	1892
4	5908	5671	5035	5909
4	4642	4641	2845	4699
4	5673	5237	5909	1891
4	4571	6274	6222	6231
4	6287	6222	6231	2908
4	6287	6274	6237	6231
4	6231	2909	2908	2919
4	4568	2780	6224	2784
4	6287	6231	6222	6274
4	6287	6317	6237	2787
4	4229	4219	4218	2065
4	6242	5895	5670	2419
4	4810	2473	4942	2529
4	6242	5895	2419	2530
4	5487	1633	5483	1632
4	5796	5895	2412	2418
4	4816	4819	5678	4817
4	5185	6214	2177	2218
4	6242	2419	5670	2399
4	5646	5645	5552	2576
4	5569	4999	1854	5572
4	6064	5569	1857	1809
4	6015	1685	1684	1755
4	5571	1751	1684	1683
4	5573	4613	3998	1678
4	5487	1632	5031	2029
4	5570	1756	1808	1751
4	3998	4713	3997	5572
4	5785	6178	2258	2308
4	5750	6176	5751	2392
4	4897	4899	5656	5428
4	6092	5191	5194	4832
4	4696	2261	6051	4697
4	4901	5616	6252	1798
4	4698	4834	2837	2841
4	5634	5151	2598	6307
4	5927	910	4131	5153
4	5634	2598	2613	2599
4	5694	908	894	909
4	5149	2611	5440	2625
4	5181	2338	5518	2231
4	5182	5518	5181	2338
4	4139	5151	5634	5927
4	6030	5011	5156	897
4	4238	898	4235	897
4	5662	4933	5661	2948
4	4886	4885	2945	2944
4	5967	4855	2955	2956
4	5767	6136	2958	5660
4	4795	4885	2944	2954
4	5967	2966	5864	4880
4	4791	4769	2481	4772
4	5576	2479	5620	5618
4	5487	2029	5031	2110
4	4810	4809	4942	2473
4	6242	2473	4810	2486
4	2964	4881	5664	5665
4	5744	4795	4765	4736
4	4787	5931	4788	5542
4	2994	5542	5931	5930
4	5592	2476	2477	5293
4	5952	2537	4941	5645
4	4699	2055	2842	2054
4	4834	2842	2838	2841
4	4899	5557	5394	1846
4	4696	5785	2258	2261
4	4834	2837	2841	2838
4	5785	6178	4823	2258
4	1891	1841	5673	5237
4	4698	2840	4900	4726
4	5488	6207	5921	4211
4	5247	4697	5906	5749
4	5242	6020	5749	5907
4	6020	2347	5820	2425
4	4978	5394	5656	4899
4	5974	5656	5392	1892
4	5656	5237	5428	1841
4	4898	4899	5428	1846
4	5792	6276	3980	6200
4	5501	2750	2118	6199
4	5831	2748	6288	2747
4	4137	5181	5518	2231
4	6313	4236	171	899
4	4234	2755	2759	2756
4	4785	4235	4783	5155
4	5856	913	4232	6305
4	3972	5091	6200	2753
4	4961	1877	4963	1907
4	5965	1862	5877	1832
4	4449	5885	5461	4964
4	4304	5965	5877	4055
4	4963	5520	1877	5965
4	6229	2259	4823	5400
4	5399	4823	6178	2259
4	4823	2258	6178	2259
4	4834	4827	2837	2838
4	5594	2258	4823	2259
4	4751	5558	5830	5393
4	4752	5829	5393	5830
4	5572	5569	1808	1854
4	1901	4713	5572	4710
4	4999	5572	5569	3996
4	5407	1757	1756	1682
4	5570	5407	1756	5408
4	6269	5869	1600	234
4	6269	5869	234	233
4	5689	4779	5241	2377
4	4523	5241	2428	2487
4	5241	5239	2428	2294
4	5240	5241	2298	2294
4	5227	6095	5226	5566
4	5750	6178	2308	2342
4	4828	4833	4827	2833
4	4835	4977	4838	4978
4	4411	5826	5751	6176
4	1912	1873	5393	5829
4	5393	1889	5558	1873
4	6149	6278	2808	2807
4	5769	5530	5605	241
4	5528	5605	5769	5530
4	5095	5797	2254	5094
4	5097	5095	6188	5096
4	6149	4294	5405	5371
4	4395	5368	4351	4350
4	4349	4353	5847	5846
4	5093	5372	5099	5094
4	5727	5084	1579	5086
4	5369	6065	4465	6233
4	6188	5797	2136	2269
4	5938	6090	1898	1857
4	6090	1857	4998	5674
4	5379	5904	2285	2200
4	4998	4205	6090	5674
4	4111	6090	1962	1937
4	4111	5851	1937	1969
4	1669	5941	2047	3820
4	2497	2560	6297	6026
4	4900	2836	6249	2835
4	4698	4833	4900	2840
4	4832	6092	6252	5616
4	4901	2835	449	2839
4	5785	2261	4697	2308
4	5750	2381	6176	2392
4	4831	4900	5616	6252
4	4822	4831	4825	4829
4	4696	4697	5785	2261
4	5594	2258	5785	4823
4	6176	4411	4977	5751
4	5393	1890	5394	5557
4	4978	4899	5557	5394
4	2477	2533	5646	5296
4	5925	5963	2329	2228
4	5264	2762	2765	2766
4	5926	2329	5925	5621
4	4557	4560	6203	6109
4	4565	3945	5964	5925
4	6294	6019	2767	2771
4	4238	6031	173	897
4	4886	2946	4920	6227
4	5296	2531	5293	2477
4	5519	2340	5518	2338
4	5296	2573	6189	6190
4	4321	5217	4577	4322
4	4320	5607	4322	4323
4	4578	5632	182	4182
4	6191	6208	2233	4577
4	4494	4182	4578	6298
4	4578	4326	4457	4493
4	4153	6245	4322	2220
4	5897	6082	1766	1829
4	5804	5773	339	5834
4	6085	6082	6086	1864
4	6082	1829	6086	1864
4	4395	4350	4396	5099
4	2519	6143	5718	5719
4	4181	4186	4187	4365
4	4523	2428	5241	6296
4	4864	2516	4524	5643
4	4523	2428	6296	2493
4	2377	5689	2487	5241
4	5610	5546	5362	4788
4	5111	2516	2487	4523
4	5227	4250	4242	4781
4	5125	4748	5126	5127
4	4045	4630	6169	4535
4	5689	2390	4779	2377
4	4523	5111	5689	2487
4	4011	4862	4863	4865
4	4676	6045	5245	5130
4	3935	5479	5050	5374
4	5051	5048	5375	5245
4	5245	5373	1893	6045
4	5296	2531	5593	5293
4	5245	1882	5130	1893
4	2249	4116	5411	2146
4	4381	4267	2393	4369
4	4739	2816	4297	2817
4	5531	4378	4119	6285
4	4113	4119	4114	4120
4	4114	5410	5409	4115
4	4184	4601	3014	5747
4	6292	4184	4601	3014
4	4647	2717	4635	2713
4	4392	4602	4393	4600
4	2994	5787	5930	6292
4	2891	462	1750	1747
4	3025	3015	4603	5747
4	5774	4708	3006	3016
4	2887	462	1750	2891
4	4393	4392	3017	3016
4	5538	5537	4600	4533
4	5541	5542	5678	5930
4	6260	4389	5258	3010
4	4387	4384	4388	4200
4	5823	2402	5423	2472
4	4387	4388	2991	2990
4	4388	3001	4389	3964
4	6260	3964	3001	3011
4	6034	3964	3011	3012
4	5940	3001	3964	3002
4	5940	3002	3963	2992
4	3966	3963	5940	3964
4	6156	6157	5759	1585
4	6035	5100	5101	5102
4	4922	5020	5021	5996
4	4167	5794	4168	5120
4	5021	5669	2631	4928
4	4969	4973	4925	4970
4	6005	2617	6007	2603
4	6181	5579	4445	4443
4	5914	4497	5444	5668
4	5803	5367	1574	1575
4	5272	2554	4893	2509
4	6023	2507	4414	2511
4	5707	5708	1573	1574
4	5591	2466	5590	2468
4	6258	5212	2564	2566
4	6066	6100	2566	2568
4	4722	5546	5536	5551
4	4368	5210	5591	4369
4	5582	6066	4620	2567
4	1955	1957	5675	1934
4	2457	2382	6176	4335
4	4335	2382	5311	2465
4	5973	1957	4109	1962
4	4181	6086	4425	4186
4	5866	4111	6291	4112
4	5973	1962	5674	1934
4	4111	6291	4112	4109
4	4111	6090	1937	5851
4	5279	4204	5866	5851
4	2592	2541	5843	6097
4	4111	4112	5851	1969
4	6025	2539	5828	2459
4	3829	4425	5898	6112
4	4112	5851	1963	5808
4	5391	1911	5971	1943
4	4408	4110	4109	5392
4	4363	4496	4364	4365
4	5315	4359	344	1721
4	5668	2542	4454	2375
4	5352	5477	1804	1750
4	6270	1571	5650	344
4	5315	345	5650	5649
4	6270	5703	5758	1572
4	4496	342	4365	4490
4	5315	5205	5640	1781
4	5201	1855	6069	5205
4	4596	2663	5203	2664
4	5782	5824	2950	5597
4	3965	4956	4954	4953
4	5357	5468	5523	5433
4	5352	6029	1747	1802
4	4893	4891	4278	2509
4	4386	4390	4101	3964
4	3963	6115	2992	5468
4	237	238	4536	4538
4	4394	4397	4383	4892
4	5968	4885	4882	5665
4	4185	3004	5787	2994
4	5352	4046	1802	1804
4	6039	4770	4812	5517
4	5285	5753	1761	1760
4	4810	2529	4936	2551
4	5952	2486	4810	2538
4	5780	6283	2911	2912
4	4223	6223	4345	5779
4	4222	2796	5602	2800
4	4222	5602	2796	4870
4	5342	5601	4121	4263
4	4222	4218	2797	2801
4	5602	2795	6283	2799
4	6145	6315	6149	6144
4	4118	2802	2063	2064
4	6302	2417	4809	2341
4	5216	5998	6302	4809
4	4877	4874	5182	4910
4	4936	4942	4939	2581
4	4735	4885	4795	5665
4	1708	4106	1761	5285
4	5285	1615	5286	1616
4	4412	5919	5196	5664
4	5360	5548	5361	5552
4	5541	5930	5931	5542
4	5692	5269	2262	5691
4	4625	4627	5129	4916
4	3939	4543	6059	5728
4	4777	2349	4774	2348
4	5240	5970	2298	4779
4	5226	1840	5246	1843
4	5117	6271	4667	5956
4	6016	5368	5769	6147
4	4274	4536	1604	1605
4	5094	5097	5099	5095
4	5089	5198	5197	5005
4	4346	5802	5081	1724
4	4349	4346	5798	337
4	6148	6233	1609	1608
4	1773	5834	4347	5328
4	4346	1724	5081	336
4	5080	5727	5086	5081
4	5198	5003	5498	5496
4	5009	3920	3923	5008
4	5316	5649	5650	5319
4	5710	1720	5315	345
4	3894	5040	5037	5039
4	5285	5286	1615	5388
4	6069	5201	4595	1806
4	375	1615	1708	1709
4	6069	5204	5205	1855
4	4488	5566	1842	1887
4	5224	4541	5234	4486
4	5226	5246	5730	1843
4	4781	5970	4779	4774
4	5569	3998	3996	5572
4	4019	4270	4986	4985
4	4005	5380	2286	2201
4	4003	5380	5941	5379
4	4996	4986	5380	2368
4	5941	5380	2201	2202
4	4286	5905	4998	4999
4	6009	4334	2439	2366
4	3905	5285	1616	5288
4	4003	3996	4197	4613
4	4492	4608	4494	4582
4	4578	3023	6298	4182
4	5761	2731	6248	2735
4	6300	5612	5760	2727
4	2727	4607	5761	4493
4	4326	6210	6293	5761
4	4609	6245	4323	4154
4	1711	1760	4213	5285
4	4924	4922	5016	4927
4	4493	6298	6300	5603
4	4965	4967	3952	5899
4	5899	6314	6172	6301
4	6171	1570	5741	1584
4	4661	2676	5012	2677
4	3957	3959	6301	6062
4	6111	4830	3022	4448
4	3960	3967	4966	6061
4	6273	6062	6079	1596
4	6172	6273	1582	1596
4	3950	3955	3959	6062
4	6079	6301	3959	6062
4	5316	5315	5314	4359
4	5161	5205	5315	5853
4	4423	5444	5668	2449
4	4497	5914	5334	4460
4	5669	4930	6000	2630
4	4360	4365	4364	1714
4	1946	1968	5323	5324
4	5324	5884	1948	1968
4	6154	1871	5324	5520
4	1871	5520	1915	5324
4	4362	4360	4376	4377
4	2542	2584	4463	2594
4	4461	4361	4355	4357
4	5668	5914	2449	5444
4	5333	5636	5334	5637
4	5448	4423	5444	5668
4	5463	5462	4421	4967
4	5914	2449	5444	2578
4	4454	2542	4460	4464
4	4882	2965	5665	4881
4	5864	4881	2975	2965
4	5852	5888	5889	5951
4	4942	2529	2581	4936
4	4934	4936	5552	5645
4	5879	5919	4412	5664
4	5060	5220	5186	5998
4	5663	5664	5678	5542
4	3925	5143	2691	3873
4	6035	5102	232	3022
4	3953	5102	6062	1597
4	6107	3041	3873	3042
4	5143	5858	2695	4287
4	5669	2630	6000	2644
4	6230	6226	2219	2229
4	3882	5250	3883	4230
4	5657	5659	6114	5585
4	3944	6096	5966	2069
4	6184	2363	2437	2198
4	4761	5942	4758	4198
4	3866	5336	2497	2363
4	2363	3866	6184	2497
4	5821	2282	2363	2198
4	5851	5808	5346	1937
4	4147	6008	422	4150
4	5358	3986	4151	4995
4	5682	1833	1718	1719
4	5685	5683	5684	1875
4	5683	1770	5684	1875
4	3822	5681	5686	3819
4	6027	6028	5793	5791
4	3985	4149	3895	1695
4	5704	3896	5683	1770
4	5611	4707	5610	6040
4	5361	5548	5295	5552
4	5930	6292	5931	2994
4	6137	4570	4572	6221
4	5292	5951	2482	5850
4	4702	4706	5652	4707
4	5864	4880	5816	4881
4	5360	5548	5552	5738
4	6004	5669	2644	2077
4	4686	4964	1907	4960
4	4745	4249	4633	4437
4	5885	4963	1941	4960
4	4960	4520	5885	4963
4	5021	5669	6256	2117
4	6220	2434	4529	4528
4	2292	5715	5890	5892
4	5422	5260	5259	5424
4	4202	6197	4722	5420
4	6206	2571	6189	2572
4	5872	5873	2977	6091
4	2978	2988	5872	6197
4	6136	2967	6091	2977
4	3821	2203	6080	2200
4	5591	5590	6104	2468
4	5872	6197	2988	4720
4	5366	4490	5803	5367
4	6258	2565	4620	2567
4	4371	5653	5555	5654
4	5803	5773	1575	340
4	4274	5846	4540	1591
4	338	4347	1773	5834
4	339	1766	5834	1773
4	4526	1763	5474	5961
4	5959	2289	4724	5677
4	5945	1649	4841	1765
4	5887	1765	5945	4840
4	3821	3820	5999	1670
4	4487	4484	5566	4488
4	4777	2348	4774	4775
4	4777	2349	5970	4774
4	5073	2864	4543	2863
4	4773	4777	5692	5970
4	4777	6050	2256	2348
4	4777	2262	5970	2349
4	5227	5566	4484	6095
4	5527	4276	5773	5367
4	4347	4349	4353	5834
4	4274	5527	5847	1590
4	3821	5379	3820	2200
4	5275	5443	5984	5277
4	4274	5435	1590	1604
4	5527	1589	5367	1575
4	5773	5527	5367	1575
4	5798	5084	4352	1579
4	5187	5189	4828	4832
4	5635	2385	5098	2350
4	3824	4371	4373	5653
4	4339	5746	5002	5654
4	5002	2427	5003	5006
4	4366	2423	5002	2427
4	3826	4366	5002	5006
4	5892	5715	2290	2292
4	2374	5890	5892	2292
4	2371	5893	5870	5892
4	4753	5892	4754	2446
4	4431	4302	4962	4305
4	5892	5715	5890	4307
4	6198	4571	6224	6222
4	5304	5835	5254	5255
4	5623	5621	5926	5925
4	5618	4772	4791	2481
4	5926	2225	5925	2331
4	4384	6197	4388	4200
4	5628	2628	2627	2642
4	5618	2409	5926	5621
4	4829	5785	5750	6178
4	1890	1889	5393	1925
4	5391	5394	1925	5392
4	4622	6089	5579	4102
4	4829	5785	6178	4823
4	5557	1849	5558	1889
4	4373	4366	5654	5002
4	5384	1768	5802	1724
4	5376	3825	4367	5947
4	4348	4342	4341	4347
4	5308	2824	5306	2828
4	5384	5329	1776	5802
4	5003	5198	5005	5006
4	3826	5006	5002	5003
4	5553	5398	5271	5554
4	4892	4397	5809	4278
4	4177	4428	4370	4424
4	4621	4620	5582	6066
4	4398	4400	5731	5094
4	4346	4347	1723	337
4	6159	1773	5328	5330
4	4835	4977	4411	4838
4	5675	1934	1957	5973
4	5238	5973	5908	5974
4	5311	6020	5309	5820
4	4622	5421	5953	5955
4	3816	3984	4843	5712
4	3927	2293	4455	3919
4	5710	5159	5711	5900
4	4452	4454	4450	4464
4	4450	4464	4454	4460
4	5315	5649	5650	5316
4	6141	4464	4455	5806
4	4454	4455	2375	2444
4	3927	4455	2293	6175
4	5710	345	5649	5901
4	4454	4455	6175	2375
4	3927	3928	2277	3919
4	4461	4462	4992	4451
4	5867	5807	4430	5347
4	6013	1685	5942	6003
4	4759	1758	1852	1787
4	5938	6013	1810	1852
4	5353	2887	5352	2891
4	5352	1747	4504	2891
4	5350	4046	5351	1845
4	1750	2887	5352	5477
4	2895	4065	4504	2891
4	4084	5687	6029	1813
4	3831	3835	3833	4066
4	4937	4936	4939	5738
4	4935	4939	4936	4942
4	5552	4936	2581	2576
4	4939	5620	2534	2535
4	5296	2574	6189	2573
4	2535	2529	2581	4942
4	5889	2484	5951	5888
4	4794	5665	4412	5196
4	5889	2537	5951	2484
4	4026	4489	5810	4482
4	4489	5672	1924	1883
4	4484	5566	4488	1887
4	5563	3938	4489	1886
4	5549	2570	6206	2572
4	4935	4812	5739	4942
4	5547	2575	5738	2534
4	4790	4789	4788	5816
4	5550	2532	5547	5532
4	5552	5738	5548	2575
4	2076	525	5501	2754
4	5501	2637	2118	2591
4	5792	527	2638	2637
4	3933	3930	4068	4080
4	4625	4958	5129	4627
4	4308	4206	5715	6168
4	4509	6056	4507	4514
4	5352	5477	2887	5353
4	4036	4045	4513	4515
4	4510	4690	4511	2260
4	5220	5998	4809	2399
4	5910	5859	5670	2344
4	4974	5057	5056	5055
4	6004	5185	6214	2177
4	6242	2399	5220	4809
4	5915	2212	4724	2289
4	5032	1624	5028	1631
4	4677	2113	2015	2027
4	5027	5031	1631	2015
4	3890	1647	5167	1646
4	5030	2112	5920	5031
4	5809	2508	4278	2452
4	5654	2510	5555	5809
4	5272	5555	2555	2508
4	5653	2510	5555	5654
4	5450	2552	5449	2507
4	6134	561	2662	2084
4	5555	2558	5277	2555
4	6149	6144	6315	2803
4	6315	2803	6144	2799
4	6146	5779	5770	2932
4	6315	582	6283	2912
4	6315	2799	6144	6283
4	4223	5779	5778	6223
4	5504	5503	5233	4542
4	5643	4523	2583	2516
4	4248	4862	4524	4864
4	5111	4778	5689	2454
4	2550	2516	4524	4864
4	5135	2877	5045	5106
4	5689	2390	4778	4779
4	4865	5169	4010	2284
4	4072	2196	4717	2017
4	4086	5460	5459	5458
4	4085	4092	4090	4089
4	4865	2364	5169	2586
4	6134	2119	5713	561
4	6272	2430	6170	2590
4	5903	2443	6170	4986
4	4364	4358	1713	4359
4	4358	5640	1825	1782
4	1782	5640	4359	4358
4	5040	5039	1825	1822
4	5205	5640	1822	5040
4	3984	5806	5359	5712
4	6134	3991	3989	5713
4	5315	1781	5640	1721
4	6130	5627	6129	175
4	6255	6006	6254	920
4	4126	5928	5634	5633
4	6302	2417	4942	4809
4	4794	4412	2963	5196
4	2152	3989	6134	3990
4	4137	2143	2231	2226
4	6102	2246	4441	6060
4	5117	5122	5438	5123
4	6083	553	2694	6101
4	2690	553	2694	6083
4	6060	2690	6083	2091
4	4390	4622	5422	5259
4	5593	2476	6190	2475
4	5651	5257	2999	3009
4	5954	2526	5426	2528
4	5426	2528	6190	5954
4	5954	2528	6190	2571
4	4880	4790	5365	5816
4	5290	5645	5646	5292
4	4554	5305	5424	5302
4	2405	2477	5592	2476
4	5592	2405	4546	2410
4	6134	2152	3990	2280
4	5355	5447	5983	5446
4	4181	4426	4361	4187
4	4453	5316	5320	4456
4	4186	6081	4490	4365
4	5636	6143	4180	5718
4	2580	2579	2588	5843
4	4354	4360	4362	4365
4	5913	2578	5914	5444
4	5913	5444	2587	2578
4	5914	2578	4460	2449
4	4425	6086	6085	6082
4	5804	5556	4188	5773
4	5653	4371	5719	4180
4	6134	2280	6070	2119
4	5272	5809	2508	4278
4	4279	5746	2378	5098
4	5809	2510	5555	2508
4	5746	5654	5809	2458
4	4391	5609	4393	5772
4	5425	5954	5426	6190
4	4720	2988	5652	6022
4	5297	5296	6190	5593
4	5294	6190	5296	6189
4	6259	5258	5256	3019
4	6259	5258	3019	3020
4	4897	4727	5655	4695
4	4081	4161	4163	4083
4	5655	5656	5974	5237
4	5655	5656	5237	5428
4	4978	5394	5392	5656
4	5749	2261	4697	2270
4	5749	2270	5907	2347
4	5749	4697	2261	2308
4	6020	2347	5749	5907
4	6168	4469	4479	2271
4	4048	4207	4210	4650
4	4469	4528	2255	2356
4	2114	2210	4950	5495
4	4690	3840	4510	4689
4	3901	4980	4049	5721
4	4980	1993	4896	5165
4	5878	5721	6041	1726
4	4874	5519	2338	2416
4	2481	2504	2485	4769
4	4734	5415	6126	4736
4	6195	2134	4690	6162
4	6302	4942	2417	2485
4	4874	2338	5519	5518
4	5029	4719	5915	2208
4	3848	5677	4753	4754
4	4755	2544	5677	4754
4	5030	5958	5921	2206
4	5959	2289	5958	5915
4	2362	4717	4724	5815
4	6195	2134	6162	2038
4	4074	4071	3851	5401
4	4753	5815	2498	2544
4	4266	6180	4573	5513
4	6287	6237	6274	2787
4	6018	4568	4567	4564
4	5608	4567	6096	5966
4	4569	4576	5980	4571
4	5775	2931	2921	2920
4	2148	2065	4219	4229
4	4573	5512	5513	6180
4	6224	5849	6222	6236
4	6287	2787	6274	2783
4	6287	2909	6317	585
4	4568	5976	4569	4566
4	4118	2805	4115	2806
4	4122	4294	2805	2801
4	5529	5342	5770	5370
4	4121	6257	4119	4228
4	4118	2806	4115	2063
4	4122	2800	6144	4294
4	6202	2796	5602	4870
4	6310	922	75	74
4	6267	6310	2600	74
4	6307	75	6310	923
4	5634	2600	2599	2614
4	5957	909	923	908
4	907	5957	5694	4974
4	5149	5633	5634	2613
4	5606	1607	5605	1606
4	6048	2255	6120	4467
4	6048	4467	5644	2272
4	4159	5235	4164	4040
4	5069	5522	6155	5521
4	4691	4692	6048	5644
4	5489	4162	4164	6037
4	4512	4514	5644	4530
4	4692	2272	6048	5644
4	4157	1978	6195	4503
4	4974	5057	5694	907
4	5998	2341	4809	2399
4	5220	5670	2317	2399
4	5995	2276	2117	2213
4	2143	5515	5688	2226
4	4041	6155	6037	5340
4	5339	5340	5351	6163
4	4688	4689	4157	5801
4	3838	2897	4065	4079
4	4507	5716	3837	2320
4	4067	3838	3836	3835
4	3840	3834	2357	2278
4	4157	1987	4158	1988
4	5213	6006	5214	905
4	6253	5742	6007	6073
4	6007	5742	2604	2618
4	4732	5196	5183	4731
4	4729	6302	4812	4809
4	5290	5291	4787	4789
4	5213	6006	905	906
4	5216	5062	4811	4730
4	5138	5989	5670	5895
4	4924	5016	4922	4928
4	4143	5219	4145	5062
4	5989	2419	5670	5895
4	4172	5132	4169	5113
4	5859	5910	5016	5995
4	5629	2627	4140	4141
4	6236	2908	587	2907
4	6236	2908	586	587
4	6222	6236	2907	2908
4	6287	6236	586	2783
4	6224	6236	2783	2779
4	6222	2907	6236	5849
4	4571	5976	4568	6224
4	6224	6236	6222	6274
4	4348	4340	4342	4347
4	4943	6118	4951	6119
4	5984	5277	5443	2552
4	5913	5443	2587	5444
4	5449	5443	5444	2506
4	5523	1603	5524	5435
4	5443	2587	5444	2506
4	5450	2557	5705	5276
4	5272	5277	5984	2555
4	5272	4278	2508	2509
4	2607	6280	5026	5018
4	4973	4970	4972	6000
4	6290	5132	5015	5113
4	4153	2220	4322	2223
4	4324	4607	2737	4320
4	6192	2192	2649	2648
4	4321	4458	4153	4577
4	6191	4577	2233	2339
4	5529	6223	5770	5779
4	4893	2556	5344	2512
4	2310	2244	4267	4381
4	5095	2295	4400	5094
4	6017	6149	4294	6144
4	5104	5077	5228	5043
4	5226	1843	5566	1885
4	5227	4246	5131	6095
4	5282	1951	5127	1919
4	4484	6095	1885	1920
4	5226	6095	1881	1885
4	4773	4026	4024	4480
4	4983	5139	5282	6001
4	4295	4313	1733	1665
4	4804	1644	4806	4842
4	4804	5945	1641	1640
4	4074	4887	5000	5401
4	4313	1775	1831	1733
4	5818	4315	1661	1660
4	4315	1665	1661	1660
4	4315	1660	4807	1664
4	5986	409	5978	1786
4	4258	5432	6183	4259
4	4259	1786	5978	1897
4	4617	1668	1667	4006
4	4704	1961	4258	5139
4	1671	5697	4618	407
4	4259	1931	1759	1786
4	4258	6183	1960	1958
4	5649	4659	5316	5315
4	5462	4419	4417	5319
4	6124	5869	6123	6157
4	4420	2251	5740	5701
4	6175	4455	2293	2375
4	5202	5203	2663	2667
4	4423	5668	4422	2450
4	4661	5899	5012	2676
4	4966	5013	5720	3960
4	4246	5282	5139	5127
4	4242	5689	4778	4779
4	5765	1901	6001	1954
4	4484	5227	6095	5282
4	4484	1920	5282	6095
4	4483	4482	1935	1927
4	5811	4482	1924	1935
4	5714	3997	5764	5765
4	4484	4488	4482	1887
4	5400	4749	4823	4824
4	3823	4342	4373	4372
4	5191	5383	5830	5558
4	5200	5079	5384	1768
4	4402	4836	4405	4749
4	5202	1753	4595	1806
4	5384	1873	5830	5383
4	5830	5329	1872	1873
4	5355	5524	5367	5527
4	3963	3965	6269	6275
4	5708	5524	1588	5367
4	5993	5992	235	5468
4	5525	6204	5349	6182
4	5433	5435	237	1603
4	3969	3971	3972	3980
4	4232	4236	899	898
4	4237	2913	6263	2903
4	6126	5979	6032	2933
4	4234	2756	6262	2755
4	5635	2423	5746	2385
4	4279	2452	4278	2451
4	4279	5746	2452	2378
4	5746	2423	5654	2458
4	5746	5809	2452	2458
4	4348	4353	4340	4347
4	5635	5002	5746	2423
4	5299	4555	3946	6228
4	4919	2927	6187	5575
4	4563	4567	4564	6018
4	2785	6096	4566	4568
4	4594	4595	5202	4596
4	6221	2928	6108	2927
4	6224	6203	2779	2780
4	4568	6018	6224	2780
4	4912	4914	4853	4913
4	3818	5713	2657	2661
4	3817	3822	5685	4592
4	3822	4592	5681	5685
4	5681	5680	2651	2652
4	6012	5680	3819	2652
4	6155	5526	1866	1870
4	4082	3838	3836	4067
4	5526	6113	1769	1728
4	6127	5526	6113	1769
4	4082	4081	4689	4157
4	4042	4040	4508	4164
4	4080	6037	5350	5351
4	4293	5192	5082	5089
4	4299	5083	4296	5085
4	4385	5317	1903	1725
4	1725	5431	4385	5307
4	6233	1595	6065	6232
4	5918	5726	334	1581
4	4289	2830	6225	2057
4	4292	4291	2821	2825
4	5431	2823	5306	2824
4	5430	2816	2815	2819
4	5368	6016	5876	6147
4	6123	1584	6157	1598
4	3957	3959	3962	6301
4	6060	3961	6061	3968
4	5102	6111	6035	5100
4	3955	3959	3925	3958
4	3032	3022	6111	4830
4	3961	3962	2689	2685
4	2687	2692	3925	3959
4	3959	2692	3925	3958
4	5103	6111	4830	6107
4	5201	5157	5711	5853
4	4334	4333	2502	2501
4	6026	4333	3874	2585
4	2501	2593	2585	4333
4	5493	2440	6094	3870
4	4897	4838	5655	4978
4	5867	5851	4112	5808
4	4985	2369	4986	2442
4	2422	2491	4985	2442
4	5309	5244	5238	5312
4	5112	5690	4778	2490
4	3994	2651	39	440
4	5681	440	3994	1874
4	5681	1874	3994	1718
4	3994	435	1701	39
4	3994	5680	435	2651
4	5280	5347	5343	5348
4	4462	5334	4463	4460
4	5335	6140	2545	5336
4	4362	4375	4181	4374
4	5912	5636	5334	2584
4	4450	4463	4464	4460
4	4360	1772	5949	1820
4	4377	1876	4376	4374
4	4376	1908	4374	1876
4	5201	5202	1806	1767
4	1820	1908	5343	4376
4	5347	1944	5346	5808
4	4355	4187	4361	4426
4	3928	3923	3915	2145
4	4329	4318	2103	5217
4	5157	5853	4659	5710
4	3915	4655	5008	3920
4	3921	2669	3920	3924
4	3914	3915	3927	3928
4	3991	6070	3990	5439
4	3923	2674	2087	558
4	558	2670	3923	2674
4	3958	3962	2684	2689
4	6079	2683	3959	6301
4	3959	6301	2683	2684
4	6078	6079	3926	3959
4	3961	3962	3958	2689
4	4595	2659	4592	1754
4	3814	3822	3819	4737
4	4329	2103	2742	541
4	3822	5681	5682	1833
4	4490	5804	1715	6081
4	5847	1576	5773	5834
4	5553	5556	5398	5554
4	5803	5804	340	4490
4	4275	5846	4274	5847
4	5271	5272	5809	5555
4	5804	5773	340	339
4	5773	339	5834	1576
4	6208	2316	4577	5217
4	4329	2742	2104	541
4	4329	2207	6208	5217
4	6208	2233	4577	2316
4	5041	2132	2650	2649
4	5531	5731	4378	6285
4	4539	5605	240	239
4	5605	241	5530	240
4	6269	6275	3965	6205
4	5606	1593	6016	1607
4	5846	4349	4353	4352
4	4397	4279	5098	5746
4	4349	338	5834	4347
4	4379	4343	5529	4345
4	5568	2391	4378	2384
4	5406	5731	6285	5094
4	5469	236	5433	237
4	6285	2249	5094	2305
4	4380	5732	5568	4378
4	3979	2075	2758	2074
4	3977	5501	5090	2075
4	5790	2591	5501	2183
4	5790	5144	5173	2083
4	6276	2748	6306	6288
4	4908	4910	2236	2216
4	4875	6129	4125	4764
4	5146	5173	5144	2639
4	5693	2273	5240	5970
4	5692	4777	2262	5970
4	5693	5240	2266	5755
4	5225	5693	5269	5267
4	5692	2273	5970	2262
4	4329	2742	4319	2746
4	5630	2227	5181	2231
4	530	2640	5800	2081
4	5800	2080	2641	530
4	5628	2080	2642	2641
4	4137	2231	5518	2340
4	5180	2236	4910	2337
4	5145	2081	5800	2640
4	5724	2178	5630	5800
4	4410	4109	5973	5974
4	4273	4019	4485	4270
4	4335	6176	6020	2382
4	4335	5312	4338	4336
4	6020	2425	5820	5311
4	2382	2296	6176	6020
4	6208	6192	2207	5041
4	6123	6157	5869	1598
4	4329	4319	5036	2746
4	6156	5869	1599	1600
4	3957	5720	5899	6301
4	6265	6172	1582	1583
4	6172	6062	1596	1597
4	5203	2667	5706	2668
4	3918	3988	3989	3815
4	5900	4658	5159	5899
4	5204	4594	6069	5205
4	4456	3919	3927	4455
4	5201	5853	1720	1781
4	5161	3913	5316	4456
4	5630	5181	4137	2231
4	6242	2399	4809	2473
4	5138	6242	5895	5670
4	5967	5968	4882	2965
4	4810	4812	4942	4809
4	4935	4810	4942	4936
4	2132	4330	5036	4329
4	6131	178	4144	2973
4	2984	5678	2994	2983
4	5116	5122	5117	5123
4	4634	5437	4587	2096
4	5305	2322	5300	5303
4	5124	5789	2396	2397
4	5835	5772	6158	6088
4	5123	2239	3999	5115
4	5301	4002	5437	5303
4	5140	5836	4002	4590
4	4588	5007	4826	4866
4	3028	3018	5788	4391
4	5300	2400	5115	2319
4	3868	6094	419	2198
4	5903	6170	2443	2590
4	4336	5904	2439	2370
4	4333	4336	4335	4331
4	4998	4286	4199	5674
4	4336	2439	4334	2502
4	5903	5311	6272	2370
4	4333	2502	2457	4335
4	3874	4889	4031	4333
4	5149	5150	2611	2612
4	3972	2757	5090	2753
4	3977	3976	2315	2181
4	3971	4782	4233	3970
4	3978	6002	4908	3976
4	5180	2236	5725	3976
4	4215	4217	4216	4907
4	4904	4910	4908	2216
4	6119	2467	6279	2517
4	5839	5124	5789	5944
4	6275	3963	3964	3002
4	4702	5259	5652	5255
4	4945	4414	4951	6023
4	5270	5338	5229	2719
4	6300	5760	5761	2727
4	5338	573	5612	2723
4	5603	3024	6298	3023
4	5041	6192	2207	2132
4	4606	2733	2728	4607
4	5337	5747	3024	3025
4	5337	5338	3034	5603
4	5603	5747	4495	4493
4	5776	5598	5584	5597
4	4380	5568	5732	4062
4	4569	4567	5608	6166
4	4381	4378	5568	2391
4	5768	4343	5530	5500
4	5371	6278	6149	6148
4	6016	4399	5605	5769
4	6147	5769	6016	1607
4	5769	1607	5605	6016
4	4113	6257	4121	4118
4	4058	4382	4057	4059
4	5779	5778	4869	4223
4	4119	2249	4378	2307
4	6123	1598	3953	1584
4	6099	5102	3953	1597
4	6124	4967	6157	6123
4	5754	6035	6034	4448
4	6099	231	5102	1597
4	6099	5102	231	232
4	5319	5462	5463	5648
4	4943	4953	4954	4956
4	5741	5901	5649	1570
4	5187	5193	5190	5188
4	5397	5497	2057	2125
4	5308	4289	2829	6225
4	4289	2829	6225	2830
4	4289	2826	2057	2058
4	6130	5010	174	6032
4	5766	2079	2643	2642
4	5766	2078	2643	2079
4	5058	5055	4133	5056
4	4922	4928	5023	4921
4	4875	6032	6130	6129
4	3978	5264	3862	5962
4	6256	6214	5995	2213
4	6074	2605	5742	2619
4	5480	4579	2621	2620
4	4580	4579	2621	5480
4	4328	4329	5217	4317
4	6238	5120	4167	5743
4	5996	2157	2647	2646
4	4922	4928	5020	5023
4	5019	2605	5861	6074
4	5839	5114	5754	6033
4	5442	5444	5449	5443
4	5457	5869	6156	6269
4	5709	4496	1572	5758
4	1573	1572	5709	4496
4	5709	5982	1586	1587
4	4402	4404	4750	4752
4	5826	2456	6161	5751
4	5391	1925	5394	5393
4	4835	4750	4979	4978
4	4979	5391	5394	5393
4	5750	2342	5751	6178
4	4034	5751	5826	6161
4	4110	1943	5391	5935
4	5453	4439	5451	5701
4	5463	5648	4967	4968
4	6270	5758	5703	5647
4	5451	5701	4439	2306
4	6123	6099	1598	5869
4	3932	3935	5478	5050
4	4043	5341	5340	5326
4	4514	2300	2379	6056
4	5339	6163	5326	5340
4	6057	6110	2353	2431
4	4626	4627	4039	4673
4	4629	6110	6057	6296
4	4013	4010	4865	5169
4	4095	4295	4887	5985
4	4309	5170	4096	4098
4	4004	5695	4255	4711
4	4618	4261	4260	6067
4	5150	6241	5440	2611
4	5986	4295	5978	409
4	5639	5204	5040	5205
4	1816	5037	1822	5039
4	5150	5151	2598	2612
4	5040	5640	1822	1825
4	5950	5040	5039	1825
4	5313	5040	5950	5640
4	5314	4456	4453	4452
4	4816	4819	5786	5930
4	5699	5627	176	175
4	6131	2973	4144	5919
4	2341	2226	5998	4288
4	5057	176	5699	5627
4	6302	5519	2417	2340
4	5220	5998	2399	2218
4	4288	4137	5518	2340
4	5057	176	5627	894
4	2226	2218	5186	5688
4	5185	5688	2218	2142
4	5185	6214	2218	5186
4	4134	4132	4140	4972
4	5060	5186	5515	5998
4	6130	4125	4131	5010
4	2178	5724	5630	2227
4	5724	2178	5800	2182
4	5628	2627	5629	2641
4	5628	5688	2079	2143
4	5688	5766	2079	2142
4	5766	5185	4972	6000
4	6206	5954	2571	2569
4	6010	2527	6186	2525
4	6190	2571	2573	6189
4	2528	2573	6190	2571
4	5295	2572	6189	2574
4	6091	4722	5536	6136
4	1899	4704	4257	1811
4	4860	4745	4249	4248
4	4961	5965	1877	1862
4	4961	1862	5916	5965
4	1907	4960	4961	4686
4	5880	5150	6213	5153
4	5916	1859	4214	1814
4	4279	4280	2380	2451
4	4217	4783	4785	4235
4	5084	4352	1579	1593
4	4394	5731	4400	4280
4	4350	5606	5084	6016
4	4400	2297	5098	2378
4	4394	5732	4057	4398
4	2269	4400	5098	5095
4	4967	6123	5741	6157
4	6171	5741	1570	5901
4	6171	3953	1583	1584
4	5741	5647	1584	1570
4	6270	5703	343	4359
4	6123	1598	6099	3953
4	5451	5454	4957	2389
4	5451	2389	6038	2388
4	4321	4323	4166	4317
4	4458	4153	5113	4851
4	6191	6192	4171	6209
4	4851	2336	4153	2223
4	4493	5612	6300	2727
4	5275	5386	5278	5366
4	4063	4062	4891	5344
4	6204	2559	6182	2562
4	5272	5984	2554	2555
4	5283	5637	5638	5336
4	4362	4360	4377	4365
4	5333	2584	5334	5636
4	5332	5333	5336	5335
4	4430	5972	6085	5807
4	5636	5843	5637	2588
4	4420	4656	2299	6175
4	4968	4420	5740	5701
4	4658	5901	5710	5649
4	3920	2674	5833	5009
4	5463	4420	4968	5701
4	4656	2251	5740	4420
4	5008	2251	4656	2257
4	4420	4656	2304	2299
4	5058	5062	5061	4731
4	6214	5186	5859	2317
4	5186	5670	5220	5218
4	2317	5670	5220	5186
4	4172	4931	5137	5132
4	4927	5910	5670	5989
4	5995	2157	5021	2117
4	5185	5766	5688	2142
4	5319	5464	5703	4356
4	4965	4966	3967	4968
4	5649	5741	5650	5648
4	5901	4658	6171	5741
4	4415	4945	4946	4944
4	5899	6314	6301	5720
4	5741	6157	6123	1584
4	3885	3886	3888	4679
4	5894	5911	5917	1861
4	5032	5486	4678	1624
4	4678	5032	1624	5028
4	5814	1707	1612	4105
4	4839	1860	5401	1863
4	5814	1707	1705	1611
4	4107	1707	1940	1762
4	6168	4469	2271	2359
4	6168	2281	5163	5715
4	6309	5151	5150	5153
4	6168	4479	4477	2162
4	3907	4213	3905	3912
4	4650	4961	4434	4686
4	4211	4755	4949	6207
4	2195	2281	5163	4477
4	4895	5495	5473	4950
4	5163	2195	5495	2210
4	4477	5495	5163	2195
4	4048	4210	4304	4650
4	4423	4414	2507	2450
4	5450	2507	6023	2553
4	4951	2455	6038	2462
4	4416	6038	4414	2455
4	4943	6119	4951	4957
4	5465	5709	5759	5758
4	4951	2514	6118	2511
4	5319	5647	5650	5703
4	3827	5329	6159	5330
4	4347	1773	5328	6159
4	5001	5802	6159	5329
4	6159	1776	5802	1724
4	1827	1773	6159	5330
4	6159	5330	5329	1827
4	4590	4660	5857	5854
4	4093	3040	4287	3041
4	4287	3873	580	2695
4	4396	4400	5095	5098
4	5143	6107	4093	3873
4	5140	4093	4830	4174
4	4287	580	3040	579
4	5886	5932	1641	395
4	5932	394	1641	395
4	5934	394	5932	1658
4	4801	5887	5945	4840
4	4808	5887	4804	4807
4	1906	4314	5000	4839
4	5887	1765	4840	1858
4	4803	4804	5929	4806
4	2928	2918	6137	6108
4	5981	6317	6202	6237
4	4561	4559	5736	5733
4	4571	6224	6222	6274
4	6287	6222	6236	6274
4	6222	2907	5849	2917
4	4720	2988	4723	4707
4	5290	5362	4787	5294
4	5084	5606	1593	6016
4	4703	5593	5426	6185
4	6088	4706	6158	5256
4	4721	4707	4720	4723
4	5811	5506	1900	1936
4	4982	4007	4984	5263
4	5810	1924	5811	4482
4	6170	2442	4985	4986
4	4984	4985	2369	4986
4	2426	2442	4985	6170
4	4985	4984	2491	5690
4	5798	4352	5084	4348
4	4985	5690	2422	4775
4	5291	5293	5641	5292
4	4494	5747	4184	6298
4	4154	2220	4153	2336
4	4581	5120	5121	5667
4	4458	5113	4153	4577
4	5796	2406	6290	2418
4	5216	4809	5220	5998
4	5798	5081	4341	5084
4	5796	4851	2406	2412
4	5798	336	4346	5081
4	1905	5702	1973	5574
4	4348	4341	5798	4346
4	5814	4107	5961	1762
4	4105	5404	5814	4107
4	4839	4802	5000	5401
4	4840	1703	5474	4526
4	5814	5474	5184	1610
4	3853	3845	4683	4684
4	4882	5363	5663	4940
4	4795	4735	4736	4886
4	5215	4763	4732	4764
4	4940	4881	4882	5665
4	5664	2975	5542	4881
4	4412	2974	5664	2964
4	4937	5739	5364	4939
4	5864	4882	4881	2965
4	5201	5205	5853	1781
4	5711	1720	5853	5710
4	4989	4988	4991	6140
4	5202	1767	5711	6058
4	5157	5159	5203	5711
4	5315	1781	5853	5205
4	5315	5649	5710	345
4	2985	5542	2975	5816
4	5864	5816	2976	2975
4	3856	4556	3858	5298
4	5183	5055	4731	5058
4	4557	6264	5250	5734
4	5056	5213	5064	892
4	4217	4785	4128	5011
4	4902	4908	4904	4910
4	5962	2216	4904	4908
4	5264	5298	3857	3860
4	4340	4353	5834	4347
4	4293	4301	4296	4299
4	4340	4353	5847	5834
4	4397	4278	4279	5809
4	4366	2492	5006	5376
4	4367	2489	4366	2492
4	4366	2427	5002	5006
4	4366	5654	5002	2423
4	4367	2492	4366	5376
4	3824	4366	4367	5653
4	5763	4777	2256	2262
4	5269	2273	5692	2262
4	5073	2863	2867	2864
4	4776	4780	4775	4774
4	5033	5565	5763	6050
4	5762	2256	2252	2166
4	4969	6005	4970	4929
4	5420	4720	5652	6022
4	5823	5955	5822	2470
4	5425	6206	6190	6189
4	5537	4600	4547	5771
4	5955	5822	2470	2524
4	5955	5426	2526	2472
4	4703	5426	5593	6190
4	6288	2747	2748	570
4	6276	2609	6306	2623
4	6288	571	2747	570
4	4783	4232	5155	4235
4	6261	6288	2595	571
4	6261	6308	5856	927
4	5435	1604	4536	238
4	4274	1590	5435	5527
4	4536	237	5433	5435
4	5357	5993	5468	5992
4	5435	1589	5527	1590
4	5524	5527	5435	1589
4	4435	5345	5344	5349
4	5524	5527	1589	5367
4	4275	4276	5847	4274
4	5275	5443	5450	5984
4	5523	5435	5433	1603
4	5523	5524	1603	1602
4	5524	1589	5435	1603
4	4114	6285	5411	5094
4	5057	894	5627	5694
4	6285	5411	2249	4116
4	4643	5882	3808	5906
4	6285	2305	4378	2249
4	5731	2305	6285	5094
4	4331	4334	4333	4336
4	6217	5973	6291	5674
4	4336	4335	5311	2465
4	4410	6291	5973	4109
4	4410	5973	5310	6024
4	5973	6291	1962	4109
4	1957	4109	5974	5973
4	2563	6117	6182	5990
4	5882	5472	4637	5845
4	6258	6219	2565	2564
4	6115	6268	5936	2971
4	3806	5907	3808	3807
4	5990	6182	2563	2562
4	5211	2564	6219	5212
4	6258	2565	6218	4620
4	5211	6219	2564	2562
4	4451	5314	4357	4356
4	5316	5315	4359	5650
4	4454	4455	2444	4464
4	6041	2011	5721	2002
4	6041	1726	5721	2011
4	5923	2000	6125	2009
4	4466	4479	4469	4467
4	5322	6152	5923	6125
4	4382	4540	5606	5605
4	4274	5847	1591	1590
4	5093	4398	5370	5406
4	4351	4352	5846	4353
4	5606	6016	5605	1607
4	4540	5846	1592	1591
4	5398	5834	5847	5773
4	4540	5605	1605	1606
4	5606	4540	1592	1606
4	5883	4488	1842	1839
4	5073	2867	2868	2864
4	5730	5566	1843	1842
4	5232	5692	5233	5691
4	5429	3943	5564	3948
4	3940	4486	4489	4026
4	5125	5126	4748	6044
4	5282	6001	1951	1954
4	5282	1919	6095	1920
4	4484	1927	4483	1920
4	4484	1885	5566	1887
4	4246	6095	5282	5127
4	4780	5690	4774	4778
4	4780	4985	4775	5690
4	3889	4677	5252	5029
4	5030	2208	5915	2206
4	4802	5000	4800	4839
4	5825	1650	2024	402
4	5825	402	2024	2115
4	5855	1651	5939	1650
4	5939	1651	4813	2025
4	4717	4715	4718	2126
4	5251	2025	5939	4813
4	5933	400	401	2115
4	4478	2162	4477	4479
4	378	1623	377	3898
4	5419	1630	5494	1637
4	481	1983	2033	2032
4	5164	2018	5495	2195
4	5162	5163	4477	5495
4	4047	4048	4308	4050
4	3861	4904	5962	2232
4	3861	3860	2073	5962
4	3860	5264	2765	2766
4	5589	6104	5590	6103
4	5210	2466	4369	2464
4	4056	4435	5604	4062
4	6204	5211	4284	4435
4	5345	4435	6204	5349
4	4059	4539	5605	5530
4	5207	5567	5210	4368
4	5590	6100	5212	5470
4	5604	2461	4062	2515
4	5568	4062	5604	2461
4	6179	6180	5600	2321
4	5598	2940	5597	2941
4	5583	5586	5584	2939
4	5598	5599	2941	5597
4	5585	5583	5584	6246
4	5981	2919	6138	2920
4	4915	6114	4932	5657
4	5590	6103	2468	2523
4	6100	6103	2523	2525
4	5582	2567	2568	6066
4	6246	6138	6201	2929
4	6136	5872	2977	6091
4	5620	5618	2479	4772
4	3965	3963	6269	5992
4	5969	6052	2250	2252
4	3947	3949	5672	3938
4	3808	2250	3807	2265
4	5472	2853	2857	2854
4	3937	3942	3949	3938
4	4021	6170	4019	4017
4	4279	4400	2378	2380
4	4891	4280	2451	2453
4	4891	5732	4280	2453
4	4279	4278	4280	2451
4	5731	2380	4280	2384
4	5731	4378	2305	2384
4	5087	4301	5096	5097
4	5531	5731	5732	4378
4	5635	5004	5096	5098
4	4290	5497	5499	4289
4	5198	5192	4290	5089
4	2350	5096	5098	5635
4	5498	5003	2350	2351
4	5080	5306	4292	5431
4	4968	4966	4656	4657
4	3951	6124	6099	6123
4	5009	5013	2678	5833
4	3916	4656	4657	3913
4	3920	5160	4661	5833
4	5768	6223	2931	2932
4	4121	4263	4228	4119
4	5903	5311	5312	4017
4	2793	2789	4575	4871
4	4222	2797	4224	4870
4	4222	2800	5602	6144
4	5980	6138	5777	5981
4	5781	2910	2921	2911
4	6235	4868	4573	5512
4	4222	4870	2796	2797
4	3991	5439	3990	3992
4	5489	5526	6037	6155
4	3990	2277	3919	2358
4	428	4651	2106	1686
4	4651	428	2106	2105
4	5793	1692	6027	1693
4	4149	4147	5704	1712
4	4959	4916	4633	5323
4	4529	4535	4530	2355
4	4529	2355	4530	4528
4	4529	5613	2494	2495
4	6169	5614	2460	4535
4	6220	4529	2434	2495
4	4510	3840	2134	2357
4	4684	1904	4686	1947
4	5958	2289	4755	2505
4	4949	2505	4754	2373
4	4949	2372	6207	2505
4	5958	2505	5921	2206
4	4755	2289	5677	2544
4	4754	2544	2505	4755
4	2446	2505	4754	2544
4	4839	5000	1863	5401
4	4919	2936	4920	2937
4	6196	6186	5533	2527
4	5589	6186	6289	6103
4	5589	6103	6010	6186
4	4510	4507	2320	2301
4	5363	4884	5739	4735
4	5622	6234	6226	5841
4	5583	6201	6221	2928
4	2532	5547	5548	5550
4	6221	4570	4572	6187
4	5583	5585	5586	5662
4	6289	2471	6186	2474
4	4474	1982	4473	1991
4	4473	4693	1989	1980
4	4473	4693	1980	2035
4	4472	1991	4474	4473
4	4469	4479	2255	4467
4	2159	6120	4473	6048
4	4471	5164	4477	4475
4	4477	4479	6168	4466
4	4173	2634	5480	2633
4	6192	6208	4328	5041
4	6191	2339	5113	4577
4	4492	4494	4325	4493
4	4167	6240	6211	5794
4	5078	1843	5730	5246
4	5729	5883	5730	1842
4	5730	1842	5883	5566
4	5073	5075	2868	2867
4	5226	1843	5730	5566
4	4781	5240	4779	5970
4	5566	5076	4487	5883
4	5078	1843	5246	1840
4	4179	6143	5912	5913
4	6081	1715	4365	1714
4	4377	1876	4374	6086
4	4360	4377	4365	1714
4	4376	1820	1876	4360
4	4190	4186	5897	5804
4	4360	1714	4364	1713
4	1876	4360	4377	4376
4	2336	2412	4851	4852
4	5121	180	5667	181
4	4182	181	5121	5632
4	4509	4507	4510	4511
4	4534	5799	5786	5544
4	5120	182	5632	181
4	5121	181	5667	889
4	4510	4511	2301	2260
4	5557	6252	5558	1849
4	6092	6252	1798	1849
4	1796	1846	1848	6252
4	5393	4978	4750	5557
4	1890	1848	1846	5557
4	5557	1889	5393	1890
4	2835	1748	2831	5616
4	5381	5193	5190	4828
4	4725	4831	4897	4899
4	4005	5697	4616	4617
4	4485	4483	5765	6001
4	4618	5697	1671	4616
4	5380	2369	4984	2286
4	4269	4281	4194	4286
4	4616	1667	4617	1666
4	5262	2284	4010	2204
4	5685	4595	1754	1807
4	3817	5685	4595	4592
4	4510	2320	3840	2357
4	5202	6058	2667	1752
4	6134	2280	3990	6070
4	4595	2659	1754	442
4	442	2663	4595	2659
4	4596	4595	2663	2659
4	5202	5203	4596	2663
4	4939	5547	5738	2534
4	5620	5532	5547	2534
4	4770	2535	4942	2485
4	4939	4770	2535	4942
4	5576	6234	2480	2408
4	4905	5926	2225	3863
4	3863	5926	2225	5925
4	5926	2329	5621	2409
4	5925	2331	2329	5926
4	2228	2329	5925	2331
4	5926	4905	2331	2414
4	4854	4880	4856	4855
4	6282	2791	6202	6317
4	5530	5500	4343	4059
4	6114	5600	6289	6179
4	4223	5778	5775	6223
4	5589	6114	5559	5659
4	4485	6001	5282	4483
4	4962	4520	4302	4449
4	5139	5127	5282	1951
4	4704	1932	5139	6001
4	5282	1954	4483	6001
4	5282	1920	4483	1954
4	5282	6095	1919	5127
4	5732	4280	2453	2384
4	5731	4280	5732	2384
4	5731	2384	5732	4378
4	5568	5732	4062	2461
4	4539	2952	5783	4538
4	5732	4062	2461	2453
4	5085	5368	6016	5876
4	5732	4280	4277	4891
4	5369	5099	4299	5085
4	5724	2227	5180	5181
4	3974	5792	5091	5501
4	6130	174	5010	896
4	5149	5151	5150	2612
4	2143	5688	4138	5628
4	5180	2236	3976	4908
4	490	2894	4069	2022
4	4069	2023	2890	490
4	2278	4070	3834	4069
4	4070	5248	5717	2275
4	4069	3834	2278	2120
4	4279	4400	5098	2378
4	4397	5809	4279	5746
4	4279	2452	5746	5809
4	4279	2380	4280	4400
4	4058	4382	4240	4063
4	4907	5182	5180	4910
4	4784	4786	3975	5146
4	4874	5518	5182	2338
4	5182	2338	5181	2227
4	4875	4125	5516	4764
4	5180	5182	5181	2227
4	2415	2416	4769	4874
4	5754	5868	5456	6034
4	4953	4945	4944	4943
4	4957	2462	6038	2389
4	5943	2389	5454	2394
4	5451	5454	2389	2309
4	6139	6151	6072	2360
4	5456	6269	5457	4953
4	5992	3963	6269	234
4	6156	1601	5993	5992
4	6275	3964	3965	6205
4	4926	5669	4930	6000
4	5015	2418	5989	6290
4	4924	4581	4922	4172
4	5910	2344	5995	5859
4	5113	2343	5015	6290
4	5910	2344	2419	2418
4	2633	4173	5020	2619
4	4922	4170	4172	4581
4	6256	6214	4926	5995
4	4955	6205	4953	4956
4	4421	4416	5701	6038
4	6270	5759	1572	5758
4	5759	6157	5647	1585
4	6270	5759	1571	1572
4	5759	1585	5647	1571
4	4953	6269	6156	5992
4	4946	4943	4955	4944
4	5457	5868	5869	6269
4	5457	5868	6035	6099
4	6034	5868	6275	3012
4	6035	6099	232	5102
4	6034	6275	3964	3012
4	6034	6035	5868	3022
4	1771	5923	6121	6132
4	5878	6132	1826	1778
4	6132	1771	6152	1821
4	6121	6132	5878	1778
4	5878	1826	6132	4055
4	5148	5521	4037	5341
4	5152	5321	6154	5520
4	5152	5522	6154	5321
4	5321	6132	1826	4055
4	6154	1871	5520	1821
4	6154	5321	5522	1821
4	5162	4471	5164	4477
4	5164	4477	2195	5495
4	6139	6072	4464	2496
4	4050	4051	4054	4476
4	2018	5162	5495	5418
4	5177	1628	5387	1635
4	4800	5166	4315	5000
4	4895	5163	4206	5162
4	3898	1623	377	3905
4	3901	3902	4896	1993
4	4980	2002	6041	5721
4	5911	4213	5894	3907
4	6118	2514	2557	2511
4	5355	5708	5447	5386
4	5276	2557	5705	2559
4	5354	5523	5524	5435
4	6182	2559	5349	5705
4	5276	2554	5984	2553
4	4800	4315	4814	4807
4	6118	2514	6117	2561
4	6182	6118	2557	5705
4	3887	5475	4839	4526
4	4313	4314	5000	1817
4	4807	1663	5886	1894
4	3885	4911	3846	4071
4	4314	1774	4807	1894
4	4801	5887	4840	4314
4	4313	1775	4315	1774
4	4313	4315	1775	1665
4	5425	6190	6206	5954
4	4554	4703	4549	4702
4	5582	4620	5953	2567
4	5425	6189	5551	6206
4	4203	4200	4202	4384
4	6010	2525	6186	6103
4	6190	2571	6206	5954
4	6189	2571	6206	6190
4	1722	4359	1782	5640
4	5728	1743	5729	4543
4	1713	4359	4358	1782
4	4360	4364	4358	1713
4	4360	1820	1876	1779
4	4541	5729	5728	5883
4	1824	1772	4358	1782
4	4358	1825	5950	1824
4	5950	1825	4358	5640
4	4461	4459	4453	4356
4	5358	5359	4988	4987
4	3984	5359	4987	5712
4	4248	5643	4864	4524
4	5812	6044	4748	1952
4	4523	5643	4248	4524
4	1966	4748	4747	4744
4	4748	6044	1950	1952
4	4521	4528	6220	4529
4	4746	4094	4015	4745
4	4232	6305	913	899
4	6305	899	116	913
4	6305	115	2751	116
4	6313	115	6305	899
4	4232	6313	6305	899
4	6284	5856	6262	6305
4	5578	179	6076	180
4	4816	5679	5852	4143
4	6242	5952	2486	4810
4	4144	4142	5919	2973
4	4142	2983	5919	2973
4	5577	5578	5121	180
4	4931	5667	5578	6076
4	5219	4810	6242	4809
4	5064	891	6076	179
4	5058	5063	4144	5183
4	3942	1791	5563	6059
4	3974	3975	5173	5790
4	5155	6213	5153	911
4	4783	5856	6276	6241
4	4783	6213	5856	6241
4	3881	4232	4235	4236
4	5155	6213	911	912
4	4238	172	4236	898
4	5449	4414	6023	2507
4	5450	2553	5276	5984
4	5355	5983	5357	5445
4	6156	1599	6157	1585
4	4952	6023	6118	5705
4	5455	5943	4957	5454
4	5442	5449	5450	5443
4	5447	5709	5708	5982
4	2557	6118	6023	5705
4	4989	5821	5108	6151
4	6139	2436	6140	6151
4	5821	2436	3866	2363
4	5283	3866	4989	4991
4	5949	4361	4376	4993
4	5728	1743	4543	1734
4	5948	5343	1824	1869
4	4766	4375	4992	4993
4	5333	5336	5335	2545
4	5750	2296	6176	2381
4	4977	6020	4335	6176
4	2459	6161	2387	5828
4	5751	6176	2456	2392
4	5750	5751	2342	2392
4	4837	6178	5751	2342
4	2387	2392	4837	6161
4	4430	5972	4424	6085
4	4408	4110	4112	4109
4	6115	6268	2971	2972
4	5434	4060	4442	5469
4	5356	5349	5705	6182
4	5349	2515	5344	2512
4	4538	237	5433	4536
4	5435	238	4536	237
4	4537	4536	5433	5435
4	5523	5433	236	1602
4	5469	5468	236	2982
4	4538	5469	4060	5433
4	4876	6126	4733	4734
4	5728	5563	1839	1791
4	4134	4972	4140	5628
4	6162	4500	2279	3834
4	6195	2134	2038	2037
4	5801	4688	4693	4158
4	4688	5801	4157	4158
4	6162	2039	4503	2038
4	4502	2897	4079	2901
4	5581	4722	5561	5551
4	6187	2937	4933	2938
4	4939	2534	5738	2589
4	5660	5586	5662	2949
4	6135	4856	2967	2957
4	6197	2969	2979	4200
4	6135	6091	6136	2967
4	6281	2978	6197	2979
4	5497	5496	2214	2125
4	5497	4289	2057	2058
4	5497	2057	4289	6225
4	5499	2263	5497	5498
4	5397	5496	5497	2125
4	5189	5195	4749	4751
4	4804	5886	5932	1641
4	5497	2214	5498	2263
4	6158	5772	5436	5788
4	4585	4587	2705	2709
4	4666	4587	2095	2706
4	4647	2716	5396	2717
4	5257	5258	3010	3009
4	4093	4287	4645	5858
4	3019	5854	5788	6158
4	4660	5436	4590	4588
4	4588	4826	2707	2703
4	5259	4389	4388	6022
4	5953	4620	2522	2567
4	5955	2526	5426	5954
4	5422	5823	5955	5822
4	5304	5300	5260	5115
4	4622	4384	4390	4102
4	5823	5423	5955	2472
4	5953	5955	2524	5822
4	5955	5954	2524	2526
4	4821	4753	5892	4754
4	4650	4961	4686	5916
4	4311	4753	5677	5815
4	4682	5916	4650	4686
4	5458	1947	4685	1938
4	4433	4685	4686	4964
4	5870	5874	2498	4753
4	5591	6104	2398	2468
4	4225	2242	4228	2312
4	5588	6104	5600	4268
4	4283	5782	5783	5599
4	4267	4369	2395	2393
4	4267	2312	4228	2244
4	4267	4381	2244	4228
4	4381	4267	2310	2393
4	4381	4119	2247	2244
4	5886	1894	413	1702
4	4822	5594	4700	4823
4	2387	5377	5828	4837
4	5886	412	1894	1663
4	2387	5828	6161	4837
4	4804	5945	5887	1641
4	4403	5751	4837	6178
4	5399	6178	4837	2342
4	5399	2259	6178	2342
4	6307	923	924	76
4	6307	923	76	75
4	6307	2599	6310	75
4	6309	6307	5153	924
4	6254	6267	4976	2601
4	5991	4954	6117	5990
4	4386	5940	4388	3964
4	5467	5469	6115	5468
4	6303	5822	2522	2469
4	5940	3002	3964	3963
4	4808	5886	4804	5887
4	2992	5468	6115	2982
4	5991	6279	2521	2517
4	6303	6279	2469	2521
4	5220	5998	2218	5186
4	5670	5859	5186	2317
4	6242	5670	5220	2399
4	5220	2317	5186	2218
4	6076	4145	5061	5064
4	5219	5952	6242	4810
4	4683	4684	5574	5917
4	4804	5886	1641	5887
4	5702	1973	5961	1905
4	5960	5961	5702	1973
4	4211	4949	4755	4754
4	4209	4950	4949	5891
4	4107	1707	4105	1710
4	4262	4268	4225	4267
4	5768	2942	5530	2932
4	5768	5500	5530	2942
4	5513	5600	2321	2240
4	5600	4268	6104	2398
4	5591	2398	4268	2395
4	5591	4267	4369	2395
4	4268	2312	4267	2395
4	4225	4268	2242	2312
4	4714	408	4261	409
4	5887	1702	5945	1765
4	5570	5572	1808	1805
4	5570	5407	1805	1756
4	4801	5887	4804	5945
4	4705	4257	4714	4254
4	5697	406	5696	407
4	5817	4718	4716	4813
4	4104	408	5819	407
4	4717	2196	2026	2017
4	5802	1768	5079	5081
4	336	1724	5081	1768
4	5198	5805	5496	5400
4	5188	6225	5497	4289
4	5200	1830	5383	1834
4	5200	1830	5384	5383
4	4824	5189	5190	5188
4	424	1684	1755	1751
4	6015	5569	1751	5571
4	4296	4292	4297	5431
4	4951	4957	2463	2462
4	5943	6279	6119	2467
4	6033	3964	6260	6034
4	4951	4957	6119	2463
4	5875	2672	5706	2671
4	6314	5720	2676	2680
4	6084	2675	2671	21
4	5710	4658	5159	5900
4	5899	6314	5720	2676
4	6314	5720	2680	6301
4	4902	4904	4905	4910
4	4238	5979	4230	2913
4	5264	2074	2762	2073
4	5979	173	6032	174
4	5977	5414	5837	2924
4	4555	4561	4560	4557
4	3977	5090	3979	2075
4	4130	4906	4877	4907
4	4184	6298	3013	4182
4	4492	4604	4605	4609
4	3024	3014	5747	6298
4	6015	1810	6064	6013
4	5786	4819	4185	5930
4	6292	4184	3004	5787
4	5060	5055	5216	4136
4	4135	5518	4288	4137
4	5186	2226	5515	5998
4	5688	2226	5515	5186
4	6015	1685	6003	1684
4	2226	4137	2143	5515
4	5957	923	6310	922
4	5957	4131	4126	5927
4	5957	6267	921	922
4	4974	5957	921	907
4	4277	4278	4891	4280
4	5605	239	4539	1605
4	5275	5278	4276	5366
4	5528	5769	5770	5530
4	5606	1592	4540	5846
4	5530	4059	5528	5605
4	4539	1605	4540	5605
4	5600	4268	2240	5513
4	6015	5569	6064	1809
4	2318	2240	5600	4268
4	4344	4265	4227	4264
4	5600	6104	2401	2398
4	5600	2318	4268	2398
4	5535	4915	5559	6186
4	5622	4559	5623	5626
4	5824	5586	2950	5597
4	5824	5586	2949	2950
4	5212	5470	5208	5590
4	5660	5824	2949	2959
4	4282	5211	5210	5604
4	6247	564	2743	118
4	6247	66	564	2
4	6247	118	66	2
4	6280	6247	914	66
4	6247	6312	564	2608
4	6146	2922	5779	2932
4	6146	241	5769	242
4	5770	5530	5769	241
4	5770	6146	5769	5342
4	5775	6223	5778	2931
4	6223	4344	4345	5768
4	5595	4266	5600	6180
4	5529	5370	5531	5406
4	6101	2091	6060	6083
4	5143	2695	5858	2700
4	2090	6060	2686	2089
4	6061	6060	2686	2690
4	554	2686	6060	2690
4	6060	554	2690	2091
4	2248	2138	4440	4439
4	4966	4440	4439	5014
4	4968	5740	4439	5701
4	5794	5120	888	5632
4	4578	182	5632	888
4	3941	4543	2860	2859
4	5427	1741	6047	5564
4	4543	1743	2863	1734
4	5563	6059	1791	5728
4	3937	3941	3939	3943
4	3941	5504	4543	4542
4	5210	5604	2464	4369
4	5590	5210	5212	2520
4	5591	2395	4369	2466
4	5211	5210	2518	2520
4	4444	5782	6268	5783
4	5210	2464	5604	2518
4	5528	5769	5370	5770
4	5588	4268	5591	6104
4	4107	1707	1710	1940
4	3885	3893	4071	3846
4	4108	4106	5752	5388
4	5390	5387	1628	1627
4	5175	5388	5752	1621
4	5487	5920	5813	2110
4	2030	2013	5924	5813
4	3910	5894	5702	5753
4	4802	4839	4071	5401
4	4148	1850	6008	5348
4	4147	1785	5038	3896
4	4148	4150	6008	4147
4	4148	6008	4762	5348
4	4846	1691	6053	1687
4	4147	439	1712	1698
4	4147	1712	439	1732
4	5681	4592	5686	2655
4	6295	2906	589	2905
4	6109	5849	2906	2916
4	6295	589	2906	588
4	2771	2772	6203	4557
4	5848	6295	2906	588
4	4097	5874	4753	5815
4	4517	4522	4521	4438
4	4310	5402	4498	4087
4	4091	4865	2364	5169
4	2364	4863	4865	4091
4	4091	4867	2438	2500
4	2546	2500	4867	4091
4	4073	4716	4316	4312
4	6165	6180	6179	2234
4	5588	5595	4265	5600
4	6179	2234	6180	2222
4	6179	2403	5841	2323
4	6179	5600	2401	2321
4	6179	2222	6180	2321
4	6015	1809	6064	1810
4	5944	2394	5943	5454
4	5789	5943	2396	2467
4	5943	2389	4957	5454
4	5943	6119	2463	2467
4	5943	4957	2389	2463
4	6119	4956	4957	4943
4	3846	5475	3851	4071
4	5474	1704	1703	28
4	5474	391	1704	28
4	4841	1649	28	1703
4	391	1649	28	4841
4	4841	4840	1703	5474
4	1765	1703	4841	4840
4	5404	5814	5184	5795
4	5960	6216	1975	5574
4	5786	5930	4185	5787
4	6015	6003	6013	6064
4	4185	5930	2994	5787
4	5850	5134	2413	5642
4	4852	5134	4850	2332
4	4851	5796	5132	4847
4	5768	4344	4343	5599
4	5598	6223	5775	2931
4	5598	5768	2941	5599
4	5770	2932	5768	5530
4	4416	5701	6038	2388
4	5320	4656	4420	6175
4	4420	2376	4422	6175
4	4420	4422	2376	2386
4	5451	6038	5701	2388
4	5701	2251	5740	2306
4	5701	2304	4420	2251
4	2306	4439	5740	5701
4	4423	2507	5449	2506
4	5382	2828	5306	2827
4	4292	2825	5308	4289
4	5191	4751	4832	5558
4	5381	2828	5382	2832
4	4824	5400	5188	5397
4	4824	4749	5189	5400
4	5318	1799	5385	1834
4	5317	2827	5382	5306
4	4705	5407	4712	4713
4	4713	4712	1805	5407
4	4705	4713	4704	4710
4	4710	1856	1901	4713
4	5268	5693	5269	2153
4	3998	5570	5407	4713
4	4705	1811	4712	4257
4	4623	2961	6268	5782
4	6100	2523	5590	5212
4	5590	2520	5212	2523
4	5206	5597	5587	5824
4	5590	2466	5210	2520
4	5206	5824	5782	5597
4	5206	5209	5597	5599
4	5591	5210	5590	2466
4	4418	4422	4423	5668
4	5450	5443	5449	2552
4	5450	2552	5984	5443
4	4423	2506	5449	5444
4	5449	2552	5443	2506
4	4944	6157	6124	5465
4	5194	5317	5385	5382
4	4385	5306	2823	2827
4	5317	2827	5385	5382
4	5385	1748	2831	447
4	5385	2827	447	2831
4	5269	5225	5232	5692
4	5385	2831	5382	2827
4	5616	5385	1799	1748
4	2831	5385	5616	1748
4	6252	4832	4831	5558
4	6294	5862	590	2767
4	3883	3878	5862	2763
4	2764	2760	3876	3878
4	5862	591	2904	590
4	5862	2904	591	2903
4	5249	4905	3863	5926
4	6019	4556	5298	2768
4	5233	5692	5234	5763
4	5033	5233	5763	5565
4	5564	2852	4640	2851
4	4546	2327	5642	2410
4	4546	2405	5871	2325
4	5641	2410	4546	5642
4	5642	2327	4546	2237
4	4548	5871	4553	2215
4	5592	4546	2405	5871
4	2237	2327	4546	4548
4	4604	4582	4584	4531
4	5593	5426	2475	6190
4	5266	2044	2042	5691
4	5424	5305	6185	5423
4	5259	5652	5261	6022
4	4701	5423	6185	5426
4	5422	5823	5423	5955
4	5422	4622	5955	5421
4	5305	5423	5300	2402
4	5424	5302	5255	6088
4	5026	2636	5025	2622
4	4492	4506	4604	4495
4	6251	2743	6312	2744
4	5017	6251	6299	5026
4	6300	3023	4578	183
4	4330	2650	5036	2636
4	4328	5217	6208	4577
4	4119	6285	2249	4116
4	4229	6257	2244	2186
4	2147	2247	4116	6257
4	4116	6257	2247	4119
4	4221	4224	4218	4220
4	4114	6285	4120	4119
4	2042	5691	5269	5266
4	4381	4119	4378	2307
4	5171	5270	575	3036
4	5110	2712	4894	2711
4	4652	5337	4603	5747
4	4652	5229	5337	4597
4	5171	5059	5007	4894
4	6106	2883	5479	5049
4	5479	2884	5049	2883
4	461	5479	5477	1746
4	5652	6088	5255	5256
4	5269	2153	5693	2273
4	5409	2062	4115	2810
4	4114	5409	4116	4115
4	5411	2146	4116	2062
4	4740	2061	2814	2060
4	4106	5752	1614	1613
4	4259	4088	5459	5986
4	5459	1897	5978	1851
4	5459	5458	5460	1917
4	4106	5752	1613	4105
4	4862	4864	4863	2550
4	5172	4746	5884	5323
4	4014	4088	4089	5432
4	5460	4259	1897	1958
4	4356	5703	4359	4364
4	5703	343	4359	4364
4	5314	4359	5315	5640
4	4464	4455	4452	4454
4	6270	344	4359	343
4	4359	1713	4364	343
4	1761	5285	4106	5753
4	6308	926	927	79
4	6308	79	2596	78
4	5880	6308	2596	78
4	5880	2596	6308	6241
4	5856	2595	6276	6241
4	4875	4764	4765	6129
4	3972	6200	5091	3980
4	5951	5850	2484	2482
4	5895	2530	5952	2483
4	4549	5291	5297	5293
4	4936	2576	2536	2551
4	5608	6180	6165	6142
4	6109	6295	5848	6203
4	5733	5250	5837	4561
4	6109	2906	5848	6295
4	5735	2926	5737	5575
4	6198	6224	6203	5849
4	4557	6109	6203	6295
4	4557	6019	6264	2771
4	5617	5619	5620	4909
4	5576	5621	6226	2408
4	6234	2407	6226	5841
4	4912	5550	6196	5533
4	6196	5532	2478	2532
4	5624	4920	4886	4855
4	6226	5621	2328	2408
4	5206	5824	5587	5562
4	6226	2326	5841	2407
4	4965	3967	4967	4968
4	4440	3968	6061	3967
4	5754	5456	6033	6034
4	5122	2241	5123	2314
4	4107	1940	1710	4106
4	3951	6099	5102	3953
4	4106	5753	1940	1761
4	3956	5147	5142	6101
4	5814	1707	4107	1762
4	5752	1613	4105	1620
4	5177	5174	3900	5412
4	5483	5485	5176	5488
4	5502	4105	1619	1620
4	5933	2158	5252	2028
4	5252	5029	4677	2116
4	5933	5939	4805	5252
4	5252	1642	2028	1646
4	3897	5167	3890	1647
4	4178	5912	5636	5334
4	6143	5636	2582	2577
4	4490	4192	5366	5804
4	4371	5555	5653	5719
4	5328	5556	4190	5897
4	4762	5346	6008	4759
4	5808	1963	1937	5851
4	5347	1908	5348	1944
4	5981	6231	6138	2919
4	3865	6184	3868	3866
4	5937	5851	5346	1937
4	1787	6008	1852	4759
4	5491	3875	4760	5279
4	4204	5937	5938	6090
4	4643	5906	6051	5882
4	4792	4798	4793	5673
4	5564	2855	3941	2856
4	6111	3022	6035	4448
4	6035	5868	3022	232
4	6035	6099	5868	232
4	6035	5754	5100	4448
4	5273	5276	4893	5984
4	5356	5349	5276	5705
4	5435	5527	5354	4274
4	5981	2909	6317	6231
4	4891	2512	4062	2453
4	4537	4538	5433	4536
4	5344	2515	4062	2512
4	5573	5896	1674	1679
4	4198	6003	6013	5942
4	1755	1751	1684	6015
4	1685	5942	422	6013
4	6013	1758	4759	422
4	6013	4759	1758	1852
4	4196	6064	5569	4998
4	1675	421	5942	4758
4	1758	1755	1685	6013
4	6303	2521	6089	5991
4	4387	5936	4445	4200
4	4102	6089	6303	5822
4	6303	2521	5991	6279
4	6089	2522	4620	2565
4	6218	2565	6219	2563
4	4815	4820	5578	4819
4	6282	5781	5981	6202
4	890	180	5667	6076
4	4145	6076	5578	4142
4	4820	5578	180	179
4	5578	179	4142	6076
4	4820	4819	4817	2993
4	5796	5895	5138	5631
4	5137	5121	5578	5667
4	4191	5719	5913	5277
4	5275	5984	5450	5276
4	4383	4275	4340	5846
4	5719	2587	5913	5277
4	4491	4496	4490	5707
4	4191	5913	5443	5277
4	5912	4180	5636	6143
4	5438	5147	2093	2092
4	5147	2698	2093	2092
4	6101	2694	2092	553
4	6101	2091	6083	553
4	6102	6060	2091	2139
4	5981	6237	6231	6317
4	6105	1794	5687	1730
4	6160	4079	6153	2900
4	466	2003	5687	1730
4	5687	1729	2004	466
4	6127	1828	5526	1769
4	5584	2930	5775	6246
4	5584	5598	5775	2930
4	5980	4871	6237	4870
4	5980	6237	6202	4870
4	5589	6186	5559	6114
4	5584	2930	6246	2929
4	5598	5775	2930	2931
4	5598	2931	5768	6223
4	5208	5212	5590	5210
4	5614	2494	4529	5613
4	4529	4535	2494	5614
4	2432	2494	4529	4535
4	5643	2494	5615	2583
4	5643	2516	4524	4523
4	5614	4535	2494	2460
4	4846	4845	1686	1687
4	4151	4987	4844	4843
4	5107	5712	4987	5108
4	3816	5712	5107	5439
4	5988	6303	5991	6279
4	4384	4101	4390	4102
4	6303	2522	6089	2521
4	5953	4620	6089	2522
4	5579	6089	6218	5991
4	5582	2567	5953	2569
4	5861	6304	68	2606
4	5019	5861	2606	6304
4	6304	67	915	68
4	6280	67	6304	2607
4	4167	4581	5120	4168
4	4927	5670	5910	5859
4	5019	5018	5017	6239
4	4739	2813	4741	5405
4	6065	1581	6232	1595
4	5086	1580	5876	1579
4	5798	5081	5727	336
4	4293	5083	5089	5082
4	4465	5430	6232	6065
4	6143	5719	4180	5718
4	5912	5636	2584	2582
4	5843	5636	5718	2588
4	5355	5274	5275	5445
4	2577	2588	2579	5718
4	4033	4407	4029	4404
4	6147	5769	1607	1608
4	4382	4383	4540	4275
4	4379	4380	5528	5567
4	6147	1607	6016	1593
4	5876	6147	6016	1593
4	6017	6149	5371	4294
4	5769	5342	5370	5770
4	5342	5770	6146	5779
4	4740	2061	5797	5411
4	5468	5784	3965	3963
4	5991	4954	5988	6279
4	5992	3965	4953	6269
4	2517	6117	2563	5991
4	6117	5991	2517	6279
4	5678	5542	2994	5930
4	5678	5879	2984	5542
4	5772	6088	4552	4709
4	4393	4708	5774	3016
4	6185	5871	2405	2404
4	5593	2531	6190	2476
4	5889	5952	5852	5951
4	6063	4788	2985	2986
4	6040	6063	2996	2986
4	5777	2920	5981	6138
4	5980	6231	6237	6274
4	4765	2943	6129	4763
4	5744	4736	4765	2943
4	6266	6032	174	2933
4	4971	4972	4970	6000
4	4769	5517	4771	4874
4	4940	4732	5196	4794
4	6069	5204	1875	5684
4	1806	1855	6069	5201
4	4123	4131	4126	5694
4	4288	4137	2226	5515
4	4733	4736	6126	4765
4	5516	5182	4874	5518
4	5183	5057	176	5699
4	5344	4435	4061	4062
4	5525	6204	6116	6181
4	5345	4062	5344	2515
4	4283	4059	5567	4343
4	5276	2553	5450	2557
4	5567	4369	5568	5604
4	5354	5433	5523	5435
4	5623	5618	5926	5621
4	6039	4772	5739	4770
4	5414	6227	2925	2935
4	5979	174	6032	2933
4	6294	6264	6295	2905
4	5221	5250	3882	5977
4	5950	5040	1825	5640
4	4995	5950	5040	5039
4	5948	1824	5949	5950
4	5948	5343	1869	5348
4	5313	5640	5950	4358
4	1824	1825	5950	5948
4	5949	4994	4993	5343
4	4099	4102	4390	4101
4	4547	5771	4551	4552
4	4709	4708	4707	5611
4	6063	5931	5542	4788
4	5205	1781	5201	1855
4	6040	5611	2997	2996
4	5931	5537	5538	5540
4	5539	5642	5641	4546
4	5545	5292	5951	5645
4	5293	5592	5641	2477
4	5610	6040	4788	5611
4	5948	5039	5038	1974
4	5948	5039	1974	1825
4	5359	6072	5806	4464
4	6069	3817	5684	5685
4	5978	5986	1786	4259
4	4257	1931	1759	4259
4	3894	3896	3895	4149
4	4260	5819	408	407
4	4245	4250	4242	4246
4	1759	4259	4261	4257
4	4260	5819	4261	408
4	4791	2415	4905	2414
4	4874	4769	5519	2416
4	4791	4769	2414	2481
4	4791	5926	2414	4905
4	5517	5519	4769	4770
4	2485	4769	5519	4770
4	4770	4769	4772	2481
4	5826	2456	6176	2457
4	4029	4404	4407	5391
4	6069	1875	5204	1855
4	5309	4335	4977	6020
4	2370	5311	6272	2465
4	3830	5898	4407	5331
4	4979	4408	4404	4409
4	4410	5974	5392	4109
4	4886	4885	4855	2945
4	5364	5738	5547	5548
4	4856	2956	4855	4880
4	5967	4882	4855	4880
4	4855	2945	4885	2955
4	5581	6206	5551	5580
4	4887	5985	4313	5000
4	3891	4074	4802	4071
4	4803	1655	5929	4814
4	5166	5000	4313	4315
4	4801	3887	4802	4839
4	3888	4681	5030	3892
4	5959	4075	3844	5677
4	4715	4717	4312	4724
4	4679	5795	5184	1617
4	3852	4311	4073	4310
4	4715	2212	4719	2126
4	5915	4719	2212	2208
4	4427	4429	4428	5637
4	4430	4374	5347	5807
4	6292	2994	5787	3004
4	4848	4534	4850	4852
4	5539	4546	5641	5592
4	5774	3015	4602	3016
4	6292	3014	4601	3015
4	6292	4184	3014	3004
4	5537	5774	5611	5931
4	5539	5592	4549	4546
4	4533	4612	4532	5642
4	4584	4603	4601	5747
4	4583	4601	6292	4184
4	5292	2536	5951	5645
4	6069	4595	5685	1807
4	4532	4612	2330	5642
4	4850	4532	2332	5134
4	2217	2332	4850	4532
4	5134	5642	2330	2413
4	5850	5134	5888	2411
4	5990	2562	6204	6182
4	6181	6204	5990	6219
4	2972	2961	5783	6268
4	5469	5468	5433	236
4	5469	237	5433	4538
4	2972	2962	4538	5783
4	3876	4215	3879	4231
4	3979	2758	5090	2757
4	5221	5837	5250	5977
4	3881	3877	4233	4234
4	3978	4908	4216	3976
4	5305	2404	6185	5423
4	4533	4611	4531	4612
4	6185	5871	5592	2405
4	6185	5423	2475	5426
4	5592	6185	2476	5593
4	3927	3919	2277	2293
4	3927	3928	2268	2277
4	3915	2145	3923	2137
4	3817	5685	6069	4595
4	2084	6134	2152	3989
4	3927	2299	4656	6175
4	2293	6175	2299	3927
4	3915	4656	2268	2257
4	5008	3915	2137	2257
4	5008	2137	5009	2172
4	5008	3920	3923	3915
4	5802	5082	5079	5384
4	5192	5194	5193	5306
4	1753	1807	4595	1806
4	4402	5195	4751	4749
4	5200	5317	5194	5306
4	5329	1873	5830	5384
4	4595	1806	1807	6069
4	6109	2906	6295	2905
4	5837	2914	5250	2924
4	5737	6227	2926	2925
4	4560	6228	6203	6018
4	5979	5222	4230	5977
4	5221	5837	5977	5414
4	5575	2916	5735	2926
4	4563	4567	4560	6167
4	4747	1965	5323	1968
4	5839	5452	5455	5456
4	3956	5147	6101	6083
4	5147	2698	4667	2093
4	5143	3873	4287	2695
4	4747	1966	4744	6183
4	5923	2010	6041	2001
4	6121	6041	5923	2010
4	5923	6125	1717	2009
4	5322	6152	5321	6132
4	6132	5321	5322	4054
4	4466	4053	4468	4469
4	6121	2010	472	1726
4	4603	5747	3015	4601
4	5270	5229	2715	2719
4	5171	4653	3036	5059
4	4602	4603	3016	3015
4	5337	4597	5229	5338
4	4652	4603	4584	5747
4	4533	5642	4532	5134
4	5270	5110	5229	4653
4	4635	2097	2718	2098
4	6275	3012	6269	3002
4	6279	5943	4956	5789
4	5987	6181	5784	6116
4	6054	2243	5944	2245
4	6275	3002	6269	3963
4	5025	2744	566	2745
4	5025	566	2744	565
4	5024	5025	5036	2745
4	5025	2744	6312	565
4	6251	5026	2744	6312
4	6073	5743	4923	5214
4	6238	5794	4167	5120
4	6238	6075	6074	5861
4	5860	6253	70	918
4	4167	6240	5017	6211
4	4747	1972	6183	1965
4	5019	6239	6304	5018
4	5860	69	917	70
4	4708	5611	2996	2997
4	4708	4707	5611	2997
4	5254	5256	6259	5258
4	6087	4706	3017	3018
4	4546	4545	5871	5592
4	4393	4708	3016	3017
4	5774	5931	3005	3006
4	5774	3005	6292	3015
4	5129	4747	5812	4748
4	5910	5015	2418	5989
4	5137	4172	5132	5119
4	6118	6117	6182	2561
4	6116	6182	6118	6117
4	4955	5455	4957	5454
4	4951	2511	6118	6023
4	4944	5982	6156	5759
4	5848	588	2907	587
4	6224	5848	6203	5849
4	5848	6236	587	2907
4	5848	5849	6236	2907
4	4635	4878	2098	2718
4	4550	4646	4631	4635
4	4635	2718	2097	2714
4	5119	4847	5132	5631
4	4923	4924	4921	5214
4	4970	6000	2630	2629
4	4886	4795	2944	4736
4	5744	2944	4736	2943
4	5744	4794	4763	4795
4	5744	4794	2953	4763
4	4986	2369	4984	5380
4	2369	2491	4985	4984
4	5263	4984	2287	2286
4	5112	2287	4984	2441
4	5263	5112	2367	2287
4	4005	2204	4617	2201
4	5061	5062	5216	4731
4	4848	4494	4583	4849
4	4816	5930	5678	4819
4	4787	4788	5931	5611
4	5666	5919	5062	4143
4	6063	2985	5542	2995
4	2996	5611	5774	5931
4	5016	5995	5910	5015
4	5249	4791	4905	5926
4	4872	4877	4874	5516
4	5929	1659	4814	1655
4	5617	5624	5619	4909
4	4791	2414	4769	2415
4	4874	4791	2415	4905
4	5618	5926	2409	2414
4	6216	5403	1975	5574
4	3845	5574	5960	5702
4	1763	4526	1973	5961
4	4526	1703	5474	1763
4	4839	1860	5475	5401
4	5960	1973	5574	1975
4	4129	5149	5440	5441
4	5011	4238	4906	4235
4	5180	2337	5182	2227
4	3978	5264	5962	6002
4	4123	6130	5694	5627
4	6254	4976	6005	2601
4	3969	3979	3977	5090
4	3975	3976	5725	3973
4	4138	5688	4134	5628
4	4060	4538	5783	5469
4	4804	4806	5934	5929
4	4539	5783	2952	5500
4	5206	5782	4201	4444
4	4808	4814	1659	4807
4	5207	5211	5212	5210
4	5395	5059	5110	4894
4	4654	4653	4652	5229
4	4647	4589	5110	2716
4	4392	5059	3027	3026
4	4653	4392	4603	3026
4	4634	2096	2714	2097
4	4610	4635	4878	5994
4	3026	3016	4392	4603
4	4804	4806	1644	1640
4	5958	4680	5959	5915
4	5252	1646	4677	3890
4	4681	5920	5030	5921
4	4680	5958	4755	5921
4	4588	4826	5007	2707
4	4174	5854	3020	6259
4	4590	4174	5140	5836
4	5301	6088	5772	5835
4	5854	3029	5788	4660
4	1655	5855	1651	4805
4	4866	5059	3037	3027
4	4866	5007	5059	4894
4	5609	4391	4393	4392
4	5305	5871	2221	4553
4	2235	2221	5305	2324
4	4804	5945	1640	1644
4	5437	2175	5956	2095
4	5303	2322	5300	3999
4	2322	2235	5303	5305
4	5844	2493	5643	4523
4	4747	5323	5812	1968
4	4747	1967	5812	4748
4	4747	1966	6183	1972
4	5327	1968	5812	5323
4	5129	5323	4916	5812
4	4916	5327	5812	5323
4	4628	6296	5844	4523
4	4252	4253	4748	5129
4	5129	5812	4747	5323
4	4959	5325	5327	5323
4	5799	5134	4852	5888
4	2238	2330	4532	4612
4	4610	4648	4604	4878
4	4883	2190	4609	2217
4	2238	2332	4532	2330
4	4532	2330	5134	5642
4	5570	1751	5569	5571
4	4196	5569	6015	5571
4	1853	4999	1854	5569
4	5570	1808	5569	1751
4	6064	5569	4998	1857
4	5569	1853	4998	1857
4	6064	1810	5938	6013
4	5937	1937	6090	5851
4	6260	3964	4389	3001
4	6260	4389	3010	3000
4	4388	2989	6022	2999
4	4388	3964	5940	3001
4	5253	5261	5257	4389
4	4386	4388	4389	3964
4	4388	3001	5940	2991
4	4571	5980	5976	6274
4	6137	6222	2918	6231
4	6246	2930	6138	2929
4	2930	2920	5775	6138
4	5980	6274	4871	5976
4	4871	5976	6274	2788
4	5583	2929	6246	6201
4	6201	2918	6137	2928
4	5981	2920	5781	2910
4	4223	5777	5775	5778
4	4262	4267	4225	4228
4	4225	4268	2312	4267
4	4225	2242	4268	2240
4	4221	4121	4227	4228
4	5587	5776	5588	5659
4	6138	6201	5514	6246
4	5777	5981	2920	5781
4	4266	5513	4268	5600
4	4803	3891	4800	4801
4	5513	2321	5600	6180
4	4588	4590	4660	4591
4	4077	4813	4805	4716
4	5857	4660	3039	3029
4	5857	4591	5858	4645
4	5253	5257	5258	4389
4	4000	5300	3999	5303
4	5300	2319	5115	2239
4	5951	5850	5888	2484
4	5641	5642	2413	2410
4	5641	2477	5592	2410
4	5641	2410	5592	4546
4	5646	5296	2533	2574
4	5951	5545	5850	5292
4	5137	5138	5631	5132
4	4387	2991	5940	2981
4	4387	5940	5784	6115
4	5987	5990	5991	6218
4	4443	6218	6258	6219
4	4201	5936	4623	4200
4	2981	2992	5940	6115
4	4387	5936	4200	2980
4	2970	5936	4200	4623
4	6115	2982	5469	2972
4	4442	6115	6268	5936
4	4234	6313	2759	2755
4	5863	11	6313	171
4	6313	11	2755	115
4	6313	2755	6305	115
4	4234	6305	2755	6262
4	4234	6313	4232	4236
4	2314	2243	2313	5122
4	4106	4108	5287	5388
4	5288	377	5721	1731
4	5285	1711	1760	1709
4	4213	1711	5288	1764
4	5412	5177	5417	5494
4	4980	2001	6041	2002
4	3907	3910	5894	5911
4	5549	2572	2527	2570
4	5549	2572	6206	6189
4	5470	6066	6010	6100
4	4932	6187	4919	4933
4	6317	584	2787	585
4	6282	6317	584	2791
4	6317	2910	585	2909
4	5981	6317	2909	2910
4	6202	2796	4870	2792
4	4222	4869	4224	4223
4	4871	2792	4870	2793
4	5150	6241	2611	2597
4	4975	6006	6005	5213
4	5180	4907	4910	4908
4	3881	4237	3883	3878
4	5149	2625	5441	2626
4	5634	5957	6310	5928
4	4126	4974	5957	5928
4	5927	6307	923	924
4	5725	2144	3973	2315
4	6235	4566	4868	2790
4	5118	5124	5944	5122
4	4574	5980	4870	4871
4	6142	2222	6180	2234
4	4868	6235	2790	2066
4	4390	5258	6260	4389
4	6193	5823	5822	2470
4	5823	2472	5955	2470
4	5823	5423	2402	5300
4	5260	6193	5823	5822
4	5256	6088	5835	6158
4	4431	4438	4090	4436
4	5402	5459	4087	4887
4	5459	1851	5978	5985
4	4092	5874	4091	4867
4	5402	5401	5403	1916
4	5459	4887	5402	5985
4	5458	1959	5460	1917
4	6289	2401	6179	5600
4	6289	6104	2471	2401
4	5659	5776	5588	6114
4	5842	6289	2474	2403
4	5842	6179	2403	5841
4	5662	4933	2948	2938
4	5363	4882	4855	4885
4	4735	5665	4882	4885
4	5967	2955	4855	4885
4	5361	5290	5294	5362
4	5147	4667	2698	2697
4	4667	4002	5117	5956
4	4667	2698	2702	2093
4	5115	2239	2241	5123
4	5754	6034	4447	4448
4	2314	2241	5123	5115
4	4446	4175	4830	4448
4	4446	4174	4830	4175
4	5123	2314	5124	5122
4	5301	5436	5835	5772
4	5115	2314	5124	5123
4	5415	5624	5625	5414
4	5576	5621	2408	2409
4	5618	2479	4772	2481
4	5618	2414	4791	5926
4	6196	2478	6234	5842
4	5624	5626	6227	4920
4	4886	6227	5414	2935
4	4438	4861	6215	4867
4	4206	5163	4950	5891
4	6238	5743	6075	903
4	4471	5163	6168	4477
4	4947	6207	4949	2447
4	4949	5891	2205	2373
4	5591	2395	4268	4267
4	4368	4267	5591	4268
4	5591	5210	2466	4369
4	5208	5590	5591	5210
4	5591	6104	4268	2398
4	4336	4332	4331	4334
4	5379	5492	3821	3820
4	4204	6064	4998	6090
4	6094	2051	2198	2437
4	4270	5380	4996	4986
4	5309	4338	4032	4335
4	5244	4017	4272	5312
4	5009	2087	3923	2674
4	5009	2678	2088	557
4	557	2674	5009	2678
4	5009	5014	2172	2088
4	2678	5013	2677	5833
4	4965	4661	4658	5899
4	3920	5833	2674	2673
4	5009	3923	2087	2137
4	6014	432	563	38
4	6014	563	2654	2194
4	5793	5791	1693	6027
4	6028	6027	3819	6012
4	6071	2658	2119	2194
4	5793	2107	6053	1688
4	6028	2653	3819	2657
4	5793	6028	6014	5791
4	4876	4734	4771	4873
4	4215	4231	4906	3879
4	3856	5298	3883	6019
4	5413	2944	5415	4736
4	5619	5926	5618	4791
4	5979	2923	5977	4230
4	6192	2649	2132	5041
4	6192	2648	5041	6209
4	4328	5041	4579	6209
4	4579	2634	6209	2648
4	6191	6208	4171	6192
4	5668	4459	4454	4460
4	3914	3913	3917	3927
4	6238	6075	5861	917
4	4419	4454	5668	4453
4	5319	5703	5650	4359
4	5668	2375	4454	2376
4	5668	2449	5914	4460
4	4355	4364	4496	5703
4	2376	2449	2450	5668
4	6238	5861	5019	6239
4	6270	5650	4359	344
4	4496	1572	5703	343
4	5017	5018	6299	6239
4	5703	5647	5650	6270
4	5142	6054	5438	5122
4	6054	5438	2174	6102
4	6054	5944	2311	2245
4	6054	2245	6102	2174
4	3952	4967	6123	6171
4	5438	2241	6271	5123
4	5438	5123	5122	2241
4	4121	4228	4229	6257
4	5775	2931	5778	2921
4	4379	4264	4263	4381
4	5780	2921	5781	5778
4	6202	5602	2796	2795
4	2932	5779	5778	2922
4	5778	6223	2932	2931
4	5588	5776	4368	4265
4	4574	4869	4223	4224
4	5876	6147	1593	1594
4	6233	6147	5876	1594
4	3828	5329	5195	5197
4	5368	4350	6016	5606
4	4739	4299	4296	5369
4	5606	4399	5368	4351
4	4739	4465	2816	2812
4	6233	1608	6147	1594
4	5084	5876	6016	1593
4	2297	5098	2269	4400
4	5789	5943	2467	6279
4	5124	2314	5115	2397
4	5122	2243	2313	5944
4	5789	2469	6279	2467
4	6303	6279	5789	2469
4	4099	4102	4100	6193
4	5944	5122	5124	2313
4	2958	6136	6135	5661
4	5560	5580	6010	6066
4	4853	4856	4920	4855
4	4918	4920	4919	6227
4	4914	5842	6234	5841
4	5842	2407	5841	2403
4	6196	5842	2474	2478
4	5842	2474	6289	6186
4	5842	6179	6289	2403
4	2967	6091	2966	4856
4	5576	2480	5620	2479
4	5589	6103	6289	6104
4	6017	6145	6146	6148
4	5770	5779	6223	2932
4	6223	5778	2932	5779
4	6145	243	6315	2912
4	5529	5770	5768	5530
4	5780	2911	5781	2921
4	5780	5602	6283	6144
4	6111	3032	5102	3022
4	6111	3032	4830	6107
4	6111	5102	6035	3022
4	4590	4668	5140	5858
4	3955	5100	5103	6111
4	5840	6054	6055	5142
4	3955	3925	5103	3958
4	4872	5517	5516	4874
4	6126	5977	2933	2934
4	3876	3882	3883	4231
4	6239	5019	4167	5017
4	4230	5979	4238	5222
4	4557	4556	2772	6228
4	5861	6239	916	6304
4	4234	3878	6313	4236
4	4238	897	5011	6031
4	3883	6263	4237	4230
4	3876	3878	3883	5298
4	4782	6262	4233	5092
4	5124	2397	6193	5789
4	5124	5789	5944	2396
4	6303	6193	5822	2469
4	6193	5823	2400	5115
4	4445	4384	3966	4387
4	6193	2470	5822	2469
4	6193	2400	5823	2470
4	5263	4984	5112	2287
4	5111	2490	5112	4778
4	5112	5262	2367	2503
4	5111	4524	4862	2503
4	4858	5112	4984	5690
4	4010	5262	4255	4012
4	4982	5263	5112	5262
4	5112	2491	5690	2490
4	5263	5112	5262	2367
4	4889	5638	6097	6297
4	5947	4367	2492	2541
4	5718	5653	4367	2519
4	6143	5719	4179	4180
4	4767	5843	5718	4367
4	4425	6082	6085	6112
4	5553	4373	5654	4339
4	4367	3824	5653	5718
4	4180	4767	5718	3824
4	4371	4342	5556	4372
4	5168	4098	4013	5170
4	4098	4072	5874	5815
4	4098	4085	4013	4096
4	4310	4887	4095	4316
4	3908	4207	3854	3911
4	4249	4628	4523	4251
4	5874	2498	5815	2362
4	5870	5874	2445	2498
4	4072	2362	5874	5815
4	5892	2374	2371	5893
4	5893	2374	2371	2445
4	5838	5219	4818	4143
4	5364	5738	4939	5547
4	4881	2965	2964	2975
4	5850	5888	5799	5951
4	2551	4936	4941	2536
4	5645	2576	2536	4936
4	4941	4810	2551	2538
4	5952	4941	2537	2538
4	4941	5645	2537	2536
4	5017	6212	6240	6299
4	4874	2337	5182	4910
4	4874	5182	2337	2338
4	2335	2337	4874	4910
4	4874	2335	4910	4905
4	4874	2415	4791	4769
4	4812	4942	6302	4770
4	3839	3834	6162	3840
4	6162	3834	2279	2357
4	4070	3840	2278	3834
4	4083	4663	4505	4079
4	4070	2320	3840	3837
4	4510	3837	3840	2320
4	4157	5801	6195	1978
4	3839	4503	4689	6162
4	3835	4067	4068	3836
4	3833	4066	4064	5676
4	3838	3832	2893	2897
4	4218	2801	4118	2802
4	6282	5602	6202	2795
4	6282	584	6317	2910
4	4569	4573	4576	5596
4	4218	2802	4118	2064
4	5780	6283	6315	6144
4	4803	4077	3897	4805
4	4222	4122	6144	5601
4	5745	5029	2116	2421
4	5029	2421	4719	2208
4	5030	5029	5915	2208
4	1646	2027	2028	5252
4	5933	5825	2115	401
4	4073	4316	4716	5166
4	5251	2126	4719	2421
4	5252	2116	5745	5029
4	5252	1646	3890	5167
4	3892	5915	5029	4719
4	4219	2148	4229	4225
4	4219	2242	4225	2240
4	2148	2242	4228	4225
4	4219	2240	4225	5513
4	4574	4575	4226	4573
4	4225	5513	2240	4268
4	3855	3863	3861	3945
4	5576	5532	5620	2480
4	2946	2945	4886	4855
4	6196	2474	6186	2527
4	5289	5296	5294	5297
4	4919	2937	4920	4933
4	4856	4880	2966	2956
4	4914	5532	5576	6234
4	4855	2946	4920	4886
4	4920	2947	4933	2937
4	4856	2946	4855	2956
4	6234	2408	6226	2407
4	6234	2407	5842	2478
4	6282	6283	5781	5602
4	5550	4912	5547	5548
4	2968	6135	2958	6136
4	4856	4933	4920	2947
4	6135	2967	6136	2968
4	5535	6196	6186	5533
4	4791	4771	4772	5619
4	4856	2946	4920	4855
4	5360	5361	5548	5364
4	4856	4920	4933	4913
4	5211	5345	2562	2518
4	5211	2518	5210	5604
4	5211	2564	5212	2520
4	5345	2515	5349	2559
4	6204	5345	2559	2562
4	5344	4061	5525	5274
4	5345	5349	2515	5344
4	6204	2559	5349	6182
4	3887	3885	5184	3886
4	3892	5915	5030	5029
4	5404	5702	3846	5961
4	4677	388	3890	1646
4	5921	2206	2112	5030
4	4839	4314	4840	1906
4	4862	2550	4863	2548
4	5432	6183	4742	4258
4	4862	2548	4863	4865
4	4863	2546	2364	2586
4	4863	2586	4865	2548
4	4091	2546	4863	4867
4	4859	4091	4863	4867
4	6224	6018	6203	2780
4	6224	6203	5848	2779
4	6224	6236	5848	5849
4	6224	2783	6236	6274
4	6224	2783	6274	2784
4	4568	6018	2780	2781
4	6268	5783	2972	5469
4	4623	5824	5767	2960
4	4623	5782	2960	2961
4	4621	4624	5470	5560
4	5211	5210	2520	5212
4	4443	6100	6258	6066
4	4623	5767	4200	2970
4	5781	2920	5778	2921
4	5780	2921	5778	2922
4	6282	2910	5981	5781
4	6204	5211	2562	6219
4	5211	5604	5345	2518
4	5469	4442	6268	5783
4	5311	4336	2370	5903
4	4193	4337	4205	4997
4	5903	5904	4336	2370
4	5731	2295	4400	2380
4	6009	4336	5904	2439
4	5903	4996	2368	4986
4	4333	4889	4031	5827
4	4411	4335	5826	6176
4	5973	5310	5675	5674
4	4271	5572	5714	4999
4	5573	5571	1679	1678
4	4270	4273	4017	4269
4	4482	4273	4485	4483
4	5764	6001	5765	4710
4	5764	3997	4710	5765
4	5575	5737	5736	4918
4	5966	2219	6230	5963
4	6230	2219	6226	5963
4	6230	6226	2326	5841
4	6165	2234	2323	2326
4	5966	5963	5964	2219
4	5651	4706	5256	3008
4	5114	4447	4099	4001
4	5261	2999	4389	6022
4	5651	4706	3008	2998
4	6259	6158	3019	5256
4	3019	3018	3008	6158
4	4706	2998	4707	2997
4	4291	2825	4289	2826
4	4300	2058	4291	5499
4	2822	2058	4300	2059
4	5499	2058	5497	2135
4	5096	5635	2350	5498
4	5797	4298	5097	4300
4	3832	2120	4500	3834
4	6049	487	41	474
4	6049	2898	2902	488
4	4501	2039	6049	1976
4	3835	3836	4068	3931
4	4500	2279	3834	2120
4	4501	3839	4500	4503
4	5739	5620	4939	4772
4	5624	4920	4853	5626
4	4939	2589	5738	2581
4	4876	4734	5625	5415
4	5363	4855	4882	4880
4	2575	5548	2532	5547
4	5620	2535	4772	2479
4	5547	2575	5548	5738
4	4200	2980	2969	2979
4	5581	5560	4624	4621
4	2970	2980	2969	4200
4	5767	2960	5824	2959
4	4623	2960	5767	2970
4	4201	5824	5782	5206
4	6010	2525	6100	2568
4	4443	6258	4620	6066
4	5581	5582	5954	6206
4	5562	5659	5589	5559
4	6258	6066	2567	4620
4	6010	5533	2527	2570
4	5535	6196	4915	6186
4	5816	4881	4880	4790
4	3907	4213	4214	5911
4	3907	3910	5287	5894
4	5288	1616	3905	377
4	5288	1731	1711	29
4	5288	1616	29	1711
4	5288	377	3906	5721
4	6122	1731	5288	5721
4	5388	1621	5175	1622
4	6078	6079	3959	6062
4	6273	6079	2683	295
4	6079	295	230	17
4	3926	6079	17	2687
4	6273	6079	6301	2683
4	5624	4855	4853	4920
4	4763	4765	4795	4733
4	2305	2295	5094	5731
4	4770	2481	4772	2535
4	5739	4770	4939	4942
4	4939	2535	4770	4772
4	6302	5519	2485	2417
4	5215	5055	4731	5183
4	5528	4382	4057	4399
4	5155	898	4232	912
4	4783	4232	5856	912
4	5856	6213	6308	6241
4	5856	5831	6276	2595
4	5856	4232	913	912
4	5880	6308	6213	6241
4	5880	5150	6309	2597
4	5880	6213	5150	6241
4	4006	1668	1667	1673
4	4615	1677	5407	5408
4	5811	4018	4482	4273
4	4193	4997	4205	4199
4	5764	4983	4710	4711
4	4705	4710	3997	4713
4	1854	5714	1901	5572
4	5572	4710	5765	1901
4	5714	1902	5506	5905
4	5731	4378	6285	2305
4	5570	4713	5572	1805
4	5338	5603	5612	3034
4	5760	5612	3033	572
4	5612	573	3033	572
4	4493	5612	4597	5603
4	4506	4605	4879	2725
4	6300	3033	5612	5603
4	4687	1964	5917	5911
4	4684	5917	1939	1971
4	4097	4311	4753	3850
4	4108	4107	5753	5702
4	5174	5390	5387	5177
4	5894	5917	1905	1861
4	5917	1971	5574	1905
4	4687	5916	4686	1904
4	4687	4686	4684	1904
4	4964	1938	4686	1907
4	4463	4460	2542	4464
4	4463	2444	4464	2542
4	4463	4464	2444	2496
4	6139	6140	2436	2545
4	4994	5039	5948	5950
4	6139	2545	5335	6140
4	5660	2959	5767	5824
4	5661	2948	4933	2947
4	4913	4856	5661	4933
4	5661	4933	4856	2947
4	6196	2478	5532	6234
4	5550	2532	6196	5533
4	6196	2474	5842	6186
4	4914	6234	6196	5532
4	6196	5533	2532	2527
4	4102	5991	5988	6303
4	5908	5671	1923	1955
4	5908	5675	1955	1957
4	5908	5238	5675	5973
4	5908	5671	5909	1923
4	4272	5671	5908	5675
4	5582	5954	6206	2569
4	6258	2566	6100	5212
4	5470	6010	6103	6100
4	5208	4284	5206	4443
4	4200	4202	5767	4623
4	4722	5872	6197	6136
4	4623	2971	6268	2961
4	2980	4200	2970	5936
4	4110	1943	5935	1969
4	2537	2483	5889	5952
4	4110	5391	1943	1925
4	4110	5392	1929	4109
4	4408	5391	4110	5392
4	4110	1929	5392	1925
4	4897	4838	4829	4695
4	5857	4093	3030	3040
4	5858	2695	4287	2699
4	4093	3031	4174	3030
4	4093	6107	4830	3031
4	4093	3041	4287	3873
4	4254	4258	4704	4257
4	5111	4524	4523	4247
4	4025	4018	4482	4026
4	4744	1960	6183	1966
4	6286	5708	5524	1588
4	6286	1601	5982	1587
4	5523	236	5433	5468
4	6286	5982	5708	1587
4	5356	6118	6182	5705
4	4815	5137	4145	4818
4	5993	235	5992	1601
4	5993	5468	235	236
4	4420	2304	5701	2386
4	2251	2304	4420	4656
4	4420	2376	6175	2299
4	6175	2376	4422	4454
4	4454	2376	4422	5668
4	4421	4416	4420	5701
4	4416	4422	2386	2450
4	4465	2811	6232	2815
4	5430	2819	5431	2820
4	4740	5411	5409	2061
4	5430	2820	4297	2816
4	4299	4298	4740	2817
4	4299	4298	2817	2821
4	4292	2820	5431	2824
4	4739	5405	5369	4465
4	5247	5242	5655	5748
4	4035	5751	6161	4837
4	4752	5829	5391	5393
4	4367	5843	2541	5947
4	5972	5971	5898	6011
4	5975	5935	6173	4112
4	4408	4110	5935	4112
4	4332	4205	4337	6217
4	2924	2914	5250	4230
4	5977	2934	5415	5414
4	5221	5977	5415	5414
4	5250	6263	4230	2914
4	4556	5298	2769	3858
4	4565	3863	3945	5925
4	4177	4428	4429	4178
4	2497	5638	5336	3871
4	5952	2483	5889	5895
4	2499	2497	5336	2363
4	6184	3874	3870	2501
4	4430	5975	5867	4888
4	5346	5279	5808	5851
4	6181	6219	4443	4284
4	5579	6218	6089	4620
4	5561	5551	5534	5560
4	4946	4957	4951	6038
4	6218	6089	2521	5991
4	5990	6219	6204	2562
4	6218	2563	5991	2521
4	5990	5991	6218	2563
4	5211	5345	4435	6204
4	5990	6219	2562	2563
4	6181	6219	5990	6218
4	6204	2562	5211	5345
4	5433	5469	4060	5434
4	5231	4779	4250	4781
4	5763	5691	2262	2256
4	5232	5233	4541	5072
4	5072	5073	5504	4543
4	5762	5510	5233	5503
4	4024	5033	6050	4022
4	5133	5232	5267	5074
4	5432	5460	1958	4259
4	4431	4306	4432	4305
4	5432	1965	4746	6183
4	4860	4436	4861	5615
4	4745	5323	4633	5129
4	4258	4257	1931	1933
4	4851	2336	4152	4153
4	4171	5022	5015	5113
4	5889	5888	5796	2483
4	5796	5888	4852	2412
4	4457	5632	4578	4182
4	4849	4183	4184	4583
4	4852	5134	2411	5888
4	4851	4852	2412	5796
4	2274	5098	2350	5096
4	5634	6310	5957	5927
4	5089	5003	5635	5498
4	5635	5003	5002	2423
4	4028	4888	4427	4889
4	5635	2385	5746	5098
4	6316	2803	6315	18
4	6316	18	1609	296
4	6277	296	6316	1609
4	6149	6148	6278	6316
4	5779	6145	5601	5780
4	6299	6311	6212	900
4	6299	6239	915	901
4	6299	6311	6250	6293
4	5466	5024	6251	5026
4	6280	914	915	67
4	6299	5026	6280	5018
4	6239	6280	6299	915
4	6251	2743	6247	6312
4	6251	6247	2608	6312
4	6198	6224	5849	6222
4	4569	4575	4566	5976
4	6108	2917	6222	5849
4	5737	5575	2926	6227
4	4559	5963	6230	6226
4	5622	6226	6230	5841
4	5532	5364	4909	5620
4	4939	5620	2535	4772
4	5617	4853	4914	5626
4	4886	2944	4795	4885
4	4939	5620	5547	2534
4	5620	2480	5532	2534
4	5624	4886	4920	6227
4	5663	4789	4790	4881
4	6302	5519	4729	4770
4	6302	5998	2341	4809
4	6302	2485	4770	4942
4	6302	5519	4770	2485
4	4288	6302	2341	2340
4	6154	1821	5522	1823
4	5341	5521	5235	6155
4	5148	6154	5325	5324
4	4974	6267	5957	5928
4	5341	1913	1945	5340
4	4513	4535	4045	4514
4	4043	5325	5341	5326
4	5341	1913	5325	1867
4	5324	1946	5325	5323
4	1867	6154	1914	5325
4	4202	4203	4443	4201
4	4445	4442	6181	4443
4	4956	5988	4100	6205
4	5957	923	5927	6310
4	2563	5991	6117	5990
4	2561	6182	2563	6117
4	5957	5928	6267	6310
4	5694	4131	909	895
4	4873	5619	4771	4791
4	5927	923	6307	6310
4	5957	909	5927	923
4	5634	6310	6307	2599
4	5927	910	5153	924
4	4126	5927	5634	5957
4	6130	5627	175	895
4	5744	2943	4763	2953
4	5119	5120	4168	5632
4	4169	4458	4577	5113
4	5132	5113	6290	4851
4	4168	5794	5632	5120
4	4165	4170	5480	4167
4	5113	4851	2406	6290
4	4607	2732	2737	2733
4	5113	2343	6290	2406
4	5022	5015	5113	2343
4	4609	4492	4325	4606
4	4492	4493	2728	4597
4	4533	4534	4531	4584
4	4648	4635	2717	4878
4	4606	4607	4325	5607
4	4879	2099	2726	2100
4	2123	2217	4850	4609
4	4531	4584	4534	4582
4	4281	4996	5903	4986
4	5493	4332	6009	3874
4	5903	2370	4996	5904
4	5856	6308	6213	926
4	5903	4996	2370	2368
4	5380	2368	2285	4996
4	2286	2285	5380	2368
4	2285	5379	5380	4996
4	5379	2200	3821	6080
4	3926	17	3042	581
4	3926	3042	6107	3873
4	3926	17	6079	230
4	3926	3873	581	3042
4	6078	3926	3925	3959
4	3925	3873	3926	6107
4	3955	6078	6062	5102
4	5678	2993	4817	4819
4	4815	4143	4145	4142
4	4183	4819	5578	5121
4	4820	2983	4142	179
4	4882	5363	4880	4790
4	4937	5552	4936	5738
4	4936	4941	5645	4934
4	4912	5548	5361	5364
4	5645	4936	5552	2576
4	5552	2581	4936	5738
4	5552	2589	5738	2575
4	6084	2675	5875	2671
4	6084	21	1568	293
4	6077	6084	293	2675
4	6084	2671	5875	5706
4	5900	5706	6084	5875
4	6265	6077	6314	5875
4	6265	1568	6077	6084
4	6261	5831	5856	2595
4	6170	4017	5903	4986
4	4997	4336	5903	5904
4	4338	5310	4032	6217
4	5514	5585	5776	6246
4	6114	5842	6179	6289
4	5595	6179	6180	5600
4	5583	6221	6187	2928
4	5662	5586	2939	2949
4	5583	6201	2928	2929
4	5360	5290	5362	4790
4	5234	4777	5763	5692
4	5856	926	6213	912
4	4743	5139	4704	4258
4	4744	1960	4258	6183
4	4744	1966	4748	1950
4	4025	4481	4485	4780
4	4014	4013	4085	4088
4	4258	1958	4259	6183
4	1960	1931	4258	1958
4	4258	1931	4257	4259
4	5562	5561	5767	5660
4	4912	6196	5550	5532
4	4856	4880	4854	6091
4	5550	5532	6196	2532
4	2532	2572	2527	5549
4	5548	2532	5550	5549
4	4912	5550	5547	5532
4	5418	2031	2012	2109
4	5417	2109	5418	2012
4	5418	2114	5495	2018
4	5473	2114	4950	5495
4	5419	380	5165	379
4	5780	6145	2922	5779
4	6146	2932	5770	241
4	6146	241	5770	5769
4	5770	6223	5768	2932
4	6147	5342	5370	5769
4	6184	3874	2501	2497
4	5363	4735	4882	4885
4	5838	5679	5666	4143
4	5547	4939	5364	5620
4	5663	5542	4789	4881
4	4685	5402	1916	1947
4	4821	4753	5870	5892
4	4783	912	5856	6213
4	4685	1947	4684	4686
4	4687	4684	5917	1939
4	4687	5916	1904	1859
4	4963	4960	4961	1907
4	5551	5549	6206	6189
4	6136	5872	6091	4722
4	4787	5543	5291	5297
4	5580	5549	2570	6206
4	6284	5831	2751	6262
4	5551	5580	5560	5581
4	5549	2532	5550	5533
4	4126	4131	5957	5694
4	6195	5801	4690	2037
4	1978	4157	1987	4503
4	4163	4501	4503	4082
4	1996	4158	6113	4662
4	5068	1989	4693	1988
4	4513	5521	5235	4037
4	5069	6152	6133	5522
4	6195	1978	2037	476
4	5091	2754	5501	2750
4	5792	6199	5501	2637
4	5927	4131	4126	4139
4	2075	2754	5501	5090
4	3984	5712	3992	5806
4	3986	5040	5204	5037
4	5279	4760	4761	4762
4	3895	1699	4149	5704
4	5359	6072	6139	6151
4	5359	6072	5712	5806
4	5107	2193	6021	5439
4	5327	5812	1952	6043
4	5327	1946	5325	5326
4	5327	1968	5323	1946
4	6037	5350	1845	1866
4	5350	1866	5526	1828
4	2134	3840	4510	4690
4	6037	1845	5340	1945
4	5437	5956	2175	2235
4	6271	3999	5123	2239
4	5117	6271	3999	5123
4	4667	2093	2702	2094
4	5437	2095	4666	4587
4	4002	3999	5956	5303
4	3999	5300	2239	2322
4	3999	2235	5303	2322
4	5817	1656	4813	1655
4	5166	1660	4814	4315
4	5929	1655	5855	1654
4	4800	4807	4314	4315
4	5986	5978	5985	5459
4	5817	1655	4814	1656
4	4805	5167	3897	4806
4	4804	5932	1640	1641
4	5844	6296	2431	2493
4	6169	6057	2379	2460
4	6057	6056	2379	2353
4	6194	6056	6057	2353
4	5844	6169	5614	2460
4	6194	2275	5716	2383
4	5924	5487	5387	5813
4	5502	5483	1627	1626
4	5031	1632	5484	5032
4	5920	6207	5813	2372
4	5486	5795	1618	1619
4	5920	2110	5031	2112
4	5920	2372	5813	2110
4	4681	5488	4499	4678
4	3847	3845	5702	4683
4	5616	4901	4900	2835
4	4696	5594	2055	2129
4	4831	5557	6252	5558
4	6252	1846	1848	5557
4	4204	5866	5851	6090
4	4249	5643	4248	4523
4	4742	4744	4258	6183
4	5615	5643	4860	4632
4	1952	1967	5812	1968
4	1967	4747	1966	4748
4	5634	6307	5927	5151
4	4748	5127	4253	4744
4	5128	4958	5131	4251
4	5790	3973	5144	2183
4	5144	3973	5725	2144
4	5145	5800	5441	2640
4	5725	3976	2315	3973
4	5724	5725	5180	2236
4	5724	2236	5180	2227
4	5131	5130	5226	5126
4	5131	5226	6095	5126
4	5269	2273	5693	5692
4	5076	5226	5246	5730
4	2266	2294	5240	2298
4	5693	5240	2273	2266
4	5693	5970	5692	2273
4	5934	393	1654	1639
4	5934	394	1658	393
4	5934	1640	5932	394
4	5934	1639	1654	4806
4	3890	3897	1647	3886
4	4808	1658	5932	1662
4	4610	4611	4648	4646
4	4646	5994	2179	2098
4	4648	4646	4611	4551
4	4878	2721	4879	2722
4	4878	4879	2099	2722
4	4506	5229	4597	2720
4	4604	4878	4506	4879
4	3915	4656	3916	3913
4	4661	5899	2676	5875
4	5012	2681	5013	2677
4	5008	5014	5009	4966
4	4661	2677	5012	5833
4	4658	5901	5900	5710
4	5538	6292	5931	5930
4	6292	5787	5930	5538
4	5850	5134	2411	2413
4	5850	5641	5642	2413
4	5544	5850	5641	5642
4	5850	2411	5888	2484
4	5850	2482	5641	2413
4	5389	5404	4107	5702
4	4108	5753	3910	5702
4	4107	5961	1762	1905
4	5753	5702	4107	1905
4	5753	1905	4107	1940
4	4107	4105	4106	1710
4	5200	5383	5318	1834
4	5194	5385	6093	5382
4	5318	1834	5383	1878
4	5200	5317	5307	1834
4	5498	5497	4290	5198
4	1878	1849	5558	6092
4	6092	1878	5383	5558
4	6092	5385	5318	1799
4	6243	539	2650	2132
4	6243	2104	2746	540
4	4330	5036	4329	4319
4	2650	4330	5036	2132
4	6243	2746	43	540
4	5036	6243	567	2650
4	4607	2728	2727	2732
4	6245	6244	4609	5607
4	4493	2728	2727	4607
4	4609	4323	6245	5607
4	4607	2732	5761	2736
4	2728	4506	4492	4597
4	4326	5471	5761	6293
4	6014	432	431	1689
4	6028	6071	6014	2654
4	6014	6071	2108	2194
4	6014	6071	2194	2654
4	6014	563	431	38
4	4480	4488	4489	4482
4	3947	4489	3938	5672
4	4024	4020	4022	6050
4	5563	1886	4488	1839
4	4544	3943	3941	5564
4	4489	3938	1883	1886
4	5810	1924	4489	5672
4	5608	6165	5596	6166
4	5976	6274	2788	2784
4	5084	1579	5086	5876
4	5086	6065	5876	1580
4	5083	5085	5087	4350
4	4293	5192	4296	5082
4	5798	5727	5084	1579
4	5085	6016	5084	5876
4	4292	2820	4297	5431
4	5095	4400	2295	2269
4	6077	293	6084	1568
4	6265	6084	6077	5875
4	6273	6077	1582	294
4	6077	293	1582	294
4	5899	6265	6314	5875
4	6314	6273	2679	6077
4	5505	2050	5511	5472
4	5309	5310	6024	4410
4	5511	5505	2048	2050
4	4977	5751	5750	6176
4	4644	2849	2853	2850
4	5472	2052	2854	2050
4	4644	2854	2850	2853
4	6228	2776	6203	6018
4	5927	924	5153	6307
4	6228	2776	6018	2777
4	4556	2769	5298	2768
4	4564	2777	6228	6018
4	5299	2772	6228	2773
4	5250	2924	5977	5837
4	4918	5737	5736	5626
4	4557	6203	2771	6295
4	4565	3945	3946	5964
4	3878	2764	5298	3876
4	5847	4349	1577	5834
4	5272	4278	4893	4892
4	4278	4892	4277	4891
4	4274	5847	5846	1591
4	5847	1577	5846	1591
4	4820	4819	5577	5578
4	5577	5578	4819	5121
4	3013	4182	3003	4184
4	5634	6310	5927	6307
4	4583	4185	4184	5787
4	4185	3004	4184	5787
4	4847	4848	4183	4849
4	3954	3955	5102	5100
4	3916	5159	4659	4658
4	3950	3959	3955	3958
4	3950	5102	3955	6062
4	3962	5720	2680	2685
4	3958	2684	3959	2688
4	4386	3966	4387	5940
4	5953	2522	6089	5822
4	6197	4388	2989	6022
4	6281	5767	6197	6136
4	4388	4389	2999	6022
4	6051	5906	4697	2270
4	5906	5907	2270	2265
4	4928	4930	2631	5997
4	2617	5023	2631	5997
4	2619	5020	2618	5742
4	6007	5997	5023	2617
4	4929	6007	6005	5997
4	5214	6076	890	5667
4	5214	890	6076	891
4	6075	6253	5860	918
4	5213	905	5214	891
4	4921	5023	6007	5997
4	4923	5214	5743	5667
4	4172	5015	4922	4927
4	5881	2896	4504	2895
4	5881	1794	4504	5687
4	4160	4084	6029	5350
4	6029	1813	5687	1794
4	3933	6029	5352	4046
4	3931	4164	4042	4508
4	5057	5694	907	893
4	5057	5694	893	894
4	5859	5186	4926	5218
4	4785	4217	4128	4129
4	4138	4137	5630	5181
4	2627	2628	4140	5633
4	5149	5634	2612	2613
4	4126	4974	4123	5694
4	4932	5575	4919	6187
4	5832	5842	5841	6179
4	5583	2928	6187	2938
4	5583	6187	5662	2938
4	6137	6221	4572	6201
4	6221	6187	2928	2927
4	5583	5662	5586	2939
4	5660	2948	5661	2958
4	4725	4831	4822	4700
4	4822	4725	4698	4833
4	4640	2848	4636	4638
4	1740	4901	2839	4726
4	4698	4699	2841	2845
4	4726	2843	1740	1737
4	4797	4796	1737	1735
4	4818	5895	6242	5952
4	5561	5660	5661	6136
4	5061	5213	5214	6076
4	5213	891	5214	6076
4	4144	4142	2973	178
4	5699	6129	4763	5215
4	5056	4975	5213	906
4	5743	5667	889	5120
4	6075	5742	5860	6253
4	4170	2619	6074	5742
4	4923	4921	6073	5214
4	5120	4581	5743	5667
4	4923	6074	6075	5742
4	890	5214	5743	904
4	5743	889	5667	890
4	6239	916	6304	915
4	5146	5441	4129	5440
4	5440	2611	6241	2610
4	6276	5440	2610	2624
4	4784	5180	5725	3976
4	3972	3980	4782	6200
4	5149	5440	5441	2625
4	4474	2034	4473	1982
4	4206	4209	5891	4950
4	5922	5923	2000	6125
4	5922	5322	4476	5923
4	4478	4479	6120	2121
4	6120	4479	2255	2121
4	4622	5953	6089	5822
4	4100	6193	6303	5789
4	6303	6193	2469	5789
4	5456	6269	6275	5868
4	6303	5822	6089	2522
4	5634	2600	6310	2599
4	5957	4131	5927	909
4	4971	2628	5766	2629
4	5218	4145	5061	4931
4	6267	5928	4976	2600
4	4971	2628	5628	5766
4	5056	893	5057	907
4	5694	5627	5055	4123
4	5723	5248	6068	5717
4	6036	2023	4069	2164
4	6036	5717	2163	2164
4	5481	5723	5053	5946
4	4065	2896	4079	2897
4	4670	6057	6194	6056
4	6068	2275	5717	5248
4	5478	4064	5676	2889
4	2282	5821	2360	5108
4	4651	419	5109	1686
4	4989	5821	6140	3866
4	5712	5108	5107	2211
4	5107	5439	5712	2211
4	3987	6021	3981	5439
4	4844	4846	4651	5109
4	1694	4156	4155	421
4	420	4756	4757	3867
4	5008	5740	2251	5014
4	4623	5782	4201	5824
4	5889	2484	5888	2483
4	5951	2537	5645	2536
4	5292	5951	2536	2482
4	5292	5641	5850	2482
4	5541	5678	5679	4816
4	4848	4850	4534	4582
4	5660	5662	2948	2949
4	6019	2772	4556	2768
4	3882	3879	5222	4231
4	3969	5090	3972	3970
4	3881	4237	3878	4236
4	4238	5979	2913	172
4	4237	4238	172	4236
4	5855	392	1654	1650
4	5855	1639	1654	393
4	5855	392	1639	393
4	5933	5167	1638	1642
4	5933	5167	4805	5855
4	5825	1650	5855	5939
4	5933	5855	5825	1638
4	5619	4884	5739	4909
4	4735	4885	4886	4795
4	5619	5618	5620	4772
4	5617	5576	5620	5618
4	3954	5142	3956	5103
4	5143	5858	4287	4093
4	5141	5143	4668	2696
4	3956	2693	6083	2689
4	3958	2684	3962	3959
4	3950	3957	3958	3962
4	5142	5438	6054	6102
4	5657	5660	5662	5661
4	4860	5643	5615	4864
4	5643	2494	5614	5615
4	4632	5643	5844	5614
4	5844	5614	5643	2494
4	5780	5778	4869	5779
4	5602	6144	2799	6283
4	5780	5602	5781	6283
4	5602	2799	6144	2800
4	4113	4117	4118	4122
4	5660	2949	5824	5586
4	4728	2852	5429	2853
4	4637	5882	4644	5472
4	4644	2854	5472	2052
4	5481	5676	3934	4066
4	5044	5104	5043	5045
4	5478	5946	5053	2885
4	3931	3836	4508	3837
4	4036	4043	5235	4041
4	6194	6068	2275	2353
4	6068	2163	5717	2275
4	4671	4628	4958	4251
4	5315	344	4359	5650
4	5319	5316	4356	4359
4	5315	344	5650	345
4	4359	5640	1721	5315
4	1722	1721	4359	5640
4	2334	2336	4152	4852
4	3876	3857	3880	5298
4	3880	5264	2761	2765
4	3882	4231	5222	4230
4	2769	3860	3858	5298
4	4081	4159	4158	5490
4	6127	1769	2005	467
4	6127	4161	4084	1729
4	4084	1729	4161	5687
4	4161	2004	5687	1729
4	5757	5507	5105	2160
4	5105	2264	5509	2224
4	6036	5507	5508	2019
4	4152	4849	4847	4458
4	5507	2264	5105	2160
4	2878	2020	2882	5757
4	5757	5268	2165	5756
4	5756	2224	5755	2266
4	5136	5266	2873	2874
4	5077	5698	5075	6098
4	4569	4568	4567	4571
4	6198	6203	6224	6018
4	2151	6235	2068	6164
4	6235	2150	5512	6142
4	2068	5966	6164	6096
4	4154	4152	4850	2334
4	2782	2778	6096	2781
4	6137	4571	4576	4572
4	4483	4273	4485	5765
4	4019	6170	4985	4986
4	4286	4196	4998	4199
4	5714	1900	5811	5506
4	5811	1935	5765	4483
4	4480	4484	4487	4488
4	2644	2078	2643	6004
4	4492	4609	4608	4582
4	5995	6214	5859	2213
4	6214	2317	5859	2213
4	6256	5016	5669	5021
4	4928	4921	4930	5997
4	4609	2123	4154	4850
4	4868	2789	4575	2793
4	4575	2793	4220	4868
4	4224	4218	4220	2797
4	4154	2123	6245	2220
4	5154	5512	4219	4220
4	5154	2066	4868	2794
4	4727	4726	4797	4796
4	4323	5607	4322	6245
4	4797	6046	1793	1841
4	6046	1835	4799	1790
4	4544	5505	2857	2861
4	4798	5673	5428	5237
4	5673	1841	5428	5237
4	5427	6046	4799	1790
4	5673	4799	6046	1835
4	3949	4799	1837	3942
4	2078	6004	2142	5766
4	5185	2218	5688	5186
4	4973	6214	5185	5186
4	4926	5859	6214	5186
4	5043	5052	5042	5698
4	5375	1838	5245	5048
4	5052	6098	5375	1801
4	5698	5042	5049	5052
4	5375	5246	5245	1840
4	5863	2759	6313	11
4	5863	11	2903	591
4	5863	3878	2759	2763
4	5863	6313	3878	4236
4	3883	6019	2763	5862
4	4237	4236	5863	3878
4	6025	6097	2560	6297
4	6026	2497	3871	6297
4	6097	2560	5638	2592
4	6025	2513	6297	2560
4	5309	5242	6024	5238
4	5975	5807	6173	6011
4	4888	4031	5284	4889
4	6064	1857	5938	1810
4	6064	6090	1857	4998
4	4204	5938	6064	6090
4	6009	2439	5904	2288
4	6064	6090	5938	1857
4	4322	6245	4153	4323
4	5937	1898	6090	1937
4	4891	2512	5344	4062
4	4891	2451	4280	4278
4	4891	5732	2453	4062
4	4891	2451	4278	2509
4	4893	2512	4891	2509
4	4274	1605	4540	4536
4	4057	4891	4062	5732
4	4189	5719	4179	4191
4	5860	6074	5861	2605
4	6075	5860	917	918
4	6075	6074	5860	5742
4	5860	6253	5742	2604
4	3990	3928	2277	2152
4	3920	2670	3924	2669
4	3989	2084	2666	2085
4	3927	2268	3928	3915
4	3928	2145	3915	2268
4	2662	3989	2661	5713
4	3990	3919	3992	2358
4	4313	4315	5000	4314
4	4313	1774	4314	1817
4	5000	1863	5401	5985
4	4839	5000	1906	1863
4	5166	4295	4315	4313
4	4805	5251	5939	4813
4	4800	5000	4315	4314
4	4095	5166	4887	4295
4	3889	4805	5252	5167
4	6137	4576	6138	6201
4	5777	5778	5781	2920
4	4569	4574	5980	4576
4	4869	5980	5777	5981
4	5662	5657	6187	5585
4	4152	4154	4323	4153
4	6244	2101	2100	544
4	4329	4318	4319	2103
4	4317	4322	4323	4320
4	4152	5796	4847	4852
4	4493	6300	4578	6210
4	4609	4323	5607	4325
4	4666	2705	4587	2706
4	5438	6101	5147	2092
4	4709	6088	4706	6087
4	5141	2692	3925	2696
4	6271	5123	2241	2239
4	5141	2696	4668	2697
4	4924	4929	4930	4921
4	5064	179	4142	178
4	5064	4142	4144	178
4	5062	5919	4730	5196
4	5218	5859	5186	5670
4	6031	6032	4906	5979
4	4876	5977	6126	5415
4	4908	4904	3862	3879
4	6126	5415	2944	4736
4	6031	5979	4906	4238
4	4238	5979	172	173
4	4233	4232	4234	6262
4	5646	5292	5645	2536
4	5292	2477	5641	2482
4	5592	5539	4549	5293
4	5296	2477	5293	5646
4	4706	3007	4708	3017
4	5651	4706	2998	5652
4	4709	4393	6087	4706
4	3007	4708	2997	4706
4	6087	4706	6158	6088
4	4468	5322	4472	5521
4	4068	4159	4164	4508
4	4688	4690	4692	4511
4	5489	6128	6113	5526
4	4081	4162	5490	4662
4	5340	5341	6155	1945
4	6128	1870	6155	5522
4	5522	1870	6155	5341
4	1870	1913	1945	5341
4	6037	6155	1866	1945
4	4196	6015	6003	5571
4	3805	3808	5969	3807
4	6015	6013	1755	1810
4	4276	4274	5527	5847
4	5272	5984	4893	2554
4	5273	4893	5272	5984
4	4893	5344	4891	2512
4	5276	4893	5984	2554
4	5657	5662	4933	5661
4	5662	2938	6187	4933
4	5585	5662	5583	6187
4	5657	4933	5662	6187
4	4150	1694	421	1698
4	4994	4148	5948	5039
4	5491	4204	4205	5866
4	4148	5038	4147	1850
4	6008	4147	1732	1850
4	4150	4147	1698	422
4	4989	6151	4988	6140
4	3894	4151	3812	3986
4	4385	5306	5307	5431
4	5080	5307	5306	5431
4	5194	5317	5382	5306
4	5307	5079	1768	335
4	5383	5318	5191	5200
4	5200	5384	1830	1768
4	5726	335	5307	1725
4	334	5431	4385	1725
4	4295	4313	4887	5985
4	4295	4315	4313	1665
4	4313	1817	5000	1831
4	4295	5978	4313	5985
4	4295	1733	4313	5978
4	5265	2869	5266	2870
4	5133	5266	5267	5232
4	5265	2870	5266	2044
4	5265	2044	5691	2046
4	5504	5073	2864	4543
4	4542	5504	4543	4541
4	4541	4487	5883	4486
4	3939	5563	6059	3942
4	5762	2046	5503	5265
4	5035	5909	5673	5237
4	5726	5430	5086	6065
4	4385	5431	5918	2819
4	5307	5726	1725	5431
4	5430	4297	2820	5431
4	4739	4296	4297	5430
4	5918	6065	1581	6232
4	3898	1630	3900	3902
4	5473	5418	5416	2109
4	3898	5286	3903	3899
4	5176	5483	5387	5390
4	4346	4347	6159	1723
4	4346	1723	6159	1724
4	4352	1592	5606	5846
4	4348	5798	4349	4346
4	5371	5876	6233	6147
4	6233	1594	5876	6065
4	6277	6278	6316	2807
4	5093	5372	5371	5369
4	4912	4915	5535	6196
4	5580	2570	5549	5533
4	5561	5660	6136	5767
4	5824	5659	5562	5660
4	5560	5533	5580	5549
4	5535	6186	6010	5533
4	5206	5824	5562	4201
4	6054	6102	2245	2246
4	2246	2139	6060	6102
4	5142	5438	6102	6101
4	6102	2091	6101	2174
4	6102	6060	6101	2091
4	6102	6083	6101	6060
4	5673	1835	3949	4799
4	6054	2311	5454	2246
4	5456	5457	5868	6035
4	5141	2696	3925	5143
4	5754	6034	6035	5868
4	5254	5258	6259	6260
4	5673	1835	6046	1841
4	5254	6259	4175	6260
4	5124	6193	2397	5115
4	5944	2396	5789	5943
4	4099	5124	6193	5789
4	5944	5454	2311	2394
4	5944	5943	2394	2396
4	4106	1614	5752	5388
4	5752	1621	5388	1614
4	5390	1627	5483	5387
4	4499	5488	4680	3843
4	3949	4793	5673	4799
4	5404	4105	5485	5389
4	5412	4948	5473	5416
4	5673	1841	6046	5428
4	4914	5622	6234	5576
4	5733	5414	5737	5837
4	4853	4920	4918	5626
4	4563	5966	6167	6230
4	6137	4570	4571	4572
4	5737	2925	5837	5414
4	2925	2914	5734	5837
4	4827	2021	6225	2834
4	4827	5397	6225	2021
4	5190	4827	5397	6225
4	4823	5594	2259	6229
4	2253	5397	6229	2170
4	6229	2259	5400	2253
4	4834	2056	2838	2055
4	4824	5190	5397	5188
4	3887	4840	5474	4526
4	5960	1973	5475	4526
4	1973	5961	4526	5960
4	1973	5574	5702	5960
4	4801	5887	4800	4804
4	5475	1860	4526	1973
4	4839	1906	4840	1860
4	4149	4147	1712	1698
4	5704	4147	1785	1712
4	1712	4149	1698	438
4	5704	438	1712	1719
4	5704	5683	1719	1770
4	1719	3895	4738	5683
4	5704	1785	3896	1770
4	4680	3843	5921	4755
4	3890	388	5028	389
4	3887	4842	3886	4841
4	4677	5028	3890	388
4	3888	5028	3886	3890
4	5184	3886	3885	4679
4	4679	3886	3888	5028
4	5032	1631	5031	1632
4	5027	5028	4677	388
4	5027	5032	5028	1631
4	4639	4640	4799	5564
4	4456	4455	3927	6175
4	3914	3928	3927	3919
4	5161	4659	5157	5853
4	5337	5603	4597	5338
4	5729	1842	5728	5883
4	5563	1791	3942	1836
4	5563	3938	1886	1836
4	5728	1839	5563	5883
4	5286	1615	5388	1622
4	1709	1711	1616	5285
4	5285	1711	5288	4213
4	3899	1629	5494	1630
4	3904	3906	3901	3912
4	1622	1621	5175	3899
4	4947	5178	5813	5416
4	2106	2197	4651	2105
4	5270	5337	3035	4653
4	2360	5108	5821	6151
4	5821	2360	6151	2436
4	3987	3981	3816	5439
4	4651	2198	2105	2282
4	5821	3866	2198	2363
4	5821	2436	6140	3866
4	4737	5680	1697	1701
4	4737	5680	6027	1697
4	5682	4738	5683	1719
4	5681	2652	3819	5680
4	5682	3994	1701	1718
4	4737	1701	5682	5680
4	3895	4738	1695	1699
4	5337	3025	4653	4603
4	1699	3895	4738	1719
4	4148	4150	4149	4155
4	3982	1692	6053	1691
4	4561	5737	5735	5734
4	4553	2221	5305	5303
4	5305	2402	5300	2322
4	5305	2404	5423	2402
4	5305	6185	2404	5871
4	6260	4389	3964	4390
4	5836	4174	6259	5854
4	6174	2425	5820	2354
4	6174	2354	3807	2345
4	6272	5820	6174	2425
4	5311	4017	5820	5244
4	6272	5903	2370	2590
4	4021	4020	6174	6052
4	5284	4031	4032	4332
4	6294	6019	5862	2767
4	4020	6174	2345	2426
4	4301	5096	6188	5499
4	5096	2263	5499	5498
4	4293	4299	4297	2821
4	2184	5499	6188	2274
4	5191	5195	4751	5830
4	6294	6295	6264	2771
4	5338	574	3034	573
4	5270	5338	2719	574
4	5338	3034	5612	573
4	4597	5612	5338	5603
4	4604	4582	4531	4532
4	5337	3024	5603	3034
4	6156	1600	5992	6269
4	5357	5983	5992	4953
4	5442	5355	5275	5445
4	4951	2463	6119	2514
4	4951	2511	4414	2455
4	5792	2623	6199	2637
4	5792	5790	5173	2638
4	5792	5173	2624	2638
4	527	2591	5792	5790
4	5144	3973	5790	3975
4	4646	2237	4612	4548
4	4883	5994	2189	2238
4	4550	4635	4647	4646
4	4612	5642	2237	2330
4	4557	6295	6264	6109
4	4589	2713	4634	2709
4	6070	6021	2209	2361
4	6021	2361	5439	2193
4	6021	4845	6053	2107
4	5107	6021	2193	4845
4	3987	6021	4845	6053
4	3981	6070	6021	6071
4	6027	6012	5680	3819
4	5793	6071	2209	2108
4	6261	79	6308	927
4	5856	6241	6308	2595
4	4783	5856	6262	5831
4	4783	6276	3980	4785
4	6276	2595	5831	6288
4	6284	913	6305	116
4	6284	5856	6305	913
4	3821	3820	1670	2049
4	3821	6094	6080	2203
4	6080	6094	2440	2203
4	4196	4198	6003	6064
4	6094	3870	2440	2437
4	5492	6009	5493	4337
4	5999	1670	3820	1675
4	4563	5966	4567	6167
4	4564	2777	6018	2781
4	4555	6018	4564	6228
4	4563	3946	3944	5964
4	3944	2154	5964	2070
4	6240	887	6212	6211
4	4165	4580	4167	5480
4	6299	900	6212	901
4	4329	4318	4317	4319
4	6311	6212	900	886
4	6238	4167	6239	5019
4	4219	5512	2149	2240
4	5512	5513	2222	2240
4	5154	5512	4220	4868
4	4868	6235	2066	5512
4	5512	2222	5513	6180
4	4219	5512	2240	5513
4	4226	4219	4225	5513
4	4223	4345	5601	5779
4	4715	5251	2126	4719
4	3889	3890	5252	4677
4	6294	6263	6019	6264
4	5745	5029	2421	4719
4	4324	4319	4320	2737
4	5036	6243	2104	2746
4	4324	2741	5024	4319
4	4580	2621	5026	5018
4	4330	5026	2635	2636
4	5466	6251	5024	2740
4	5041	2635	2650	4330
4	4329	2207	5217	2103
4	6294	6264	2904	6263
4	4423	2450	4416	4414
4	4420	2386	4416	4422
4	6264	2905	6109	6295
4	4416	5701	2388	2386
4	4416	4414	2450	2455
4	4413	4423	4416	4414
4	4416	6038	2455	2388
4	5685	6069	1875	5684
4	5685	5683	1875	1833
4	5681	1754	5685	4592
4	5685	1754	4595	4592
4	5204	5684	6069	3817
4	4947	2111	6207	2447
4	5412	5494	5417	5418
4	3904	4895	3900	4209
4	5722	2030	5813	2111
4	5417	5494	5177	1636
4	5417	5494	1637	5418
4	5924	5722	2030	5813
4	5287	5285	5388	5286
4	4947	5473	2447	2205
4	5412	5419	3900	5494
4	5066	5067	2007	1998
4	5067	1728	6128	1727
4	4604	4652	4531	4584
4	5068	4158	1988	4693
4	4472	4473	5070	1990
4	5104	5756	5693	5267
4	5071	5073	4541	5729
4	5054	5045	2876	2880
4	5232	5269	5691	5266
4	5757	5136	5268	5756
4	4020	4985	2422	4775
4	4022	4020	6052	6050
4	4020	2346	4775	2422
4	6085	6086	4374	1876
4	6085	6082	1864	6112
4	1864	6011	5807	6085
4	4589	2712	5110	2716
4	4430	6085	4374	5807
4	6085	1876	4374	5807
4	4889	5827	6026	6297
4	4654	4647	4648	5609
4	5947	2492	4367	5376
4	4826	4645	4591	4660
4	4826	4645	3039	578
4	4645	579	3039	578
4	4645	579	4287	3040
4	4645	4093	5857	3040
4	4317	4320	4323	4325
4	5119	5632	4849	5121
4	5794	888	6211	4578
4	902	6238	888	6240
4	4168	5794	6211	4578
4	6238	6075	5743	6074
4	4596	4595	2659	4592
4	4596	4592	2659	2660
4	5202	2663	4596	4595
4	3918	3922	3993	3917
4	5314	4358	4359	5640
4	5229	2716	5110	2715
4	3817	4596	4593	4592
4	3817	5684	3822	3812
4	5201	5202	1767	5711
4	3917	5158	3922	3993
4	6072	6151	5712	2360
4	6139	2360	6072	2496
4	2496	6141	6072	4464
4	6139	4463	2496	4464
4	5158	5314	4452	4456
4	2435	2360	6072	2211
4	5359	5712	6072	6151
4	4459	4454	4453	5668
4	4991	3866	4989	6140
4	4450	4461	4462	4459
4	5682	1719	5683	1833
4	3822	5685	1833	5683
4	5681	2655	441	1754
4	4603	4652	4653	5337
4	437	1700	1718	1719
4	5912	5913	2578	5914
4	4180	5718	5719	5653
4	4181	4377	4374	6086
4	5334	5914	2578	4460
4	4354	4357	4359	4356
4	4354	4360	4365	4364
4	5949	4361	4360	4376
4	5912	5334	5914	2578
4	4084	6029	1879	1813
4	6029	5350	1879	1802
4	3933	6029	4046	5350
4	5352	1747	6029	4504
4	6029	4504	1747	1794
4	6029	4504	1794	5687
4	3933	6029	4160	4504
4	4160	6029	5687	4504
4	4554	5592	5593	6185
4	5290	4789	4934	5545
4	4545	4552	4547	4551
4	5289	5292	5646	5293
4	5293	5292	2477	5641
4	5593	5293	2476	5592
4	5646	2477	5293	5292
4	4890	5947	6025	6097
4	5637	2592	6097	5638
4	4427	5843	6097	5637
4	5843	2592	6097	5637
4	4403	5750	4838	5751
4	5898	6085	6011	6112
4	6162	2134	3840	2357
4	6195	6162	4503	2038
4	6162	2357	3840	3834
4	3839	4500	6162	3834
4	3839	6162	4500	4503
4	6162	2039	4500	4503
4	6162	2279	4500	2039
4	5788	4391	3018	6087
4	4393	3017	4391	6087
4	4391	6087	3017	3018
4	5304	5260	5255	5254
4	4393	3017	4706	4708
4	6158	4706	6087	3018
4	4160	4084	4161	5687
4	4162	4084	5350	5526
4	4084	1729	5687	1813
4	4084	1879	5350	1828
4	4084	1879	6029	5350
4	2640	5441	2641	5800
4	5145	2081	2640	529
4	5629	2627	5441	2641
4	5149	2611	5150	5440
4	4138	2143	5630	4137
4	4146	5629	5441	5800
4	4127	4146	4907	5179
4	5397	2057	5497	6225
4	5188	5497	5397	5496
4	5400	6229	2253	5397
4	5397	2021	2056	2170
4	5397	2057	6225	2021
4	4275	4274	5846	4540
4	5354	5435	5524	5527
4	5445	5450	6023	5705
4	4537	5354	5435	5433
4	5276	4893	2554	2556
4	4435	5434	5525	4061
4	5274	4893	5276	5344
4	6023	2557	5705	5450
4	5251	5745	2421	4719
4	4077	5745	5251	4719
4	4715	2212	4724	4719
4	4717	4718	4103	2026
4	5251	5745	2158	2421
4	4805	5939	5251	5745
4	5474	1704	1610	5814
4	3884	4801	4842	3887
4	3886	1648	5184	4841
4	3886	389	3890	5028
4	391	1648	4841	5184
4	5289	4787	5297	5294
4	4549	5293	5593	5592
4	4202	4624	5561	5767
4	5593	2476	5293	2531
4	5296	5593	2531	6190
4	5593	5426	6185	2475
4	6185	2475	2476	5593
4	2404	2476	6185	2475
4	4603	4600	4392	4652
4	908	5694	907	5957
4	4969	4971	2615	4976
4	4970	2630	5997	2616
4	4970	4929	6005	5997
4	4923	5214	5667	6076
4	4603	4652	4392	4653
4	4976	5928	2614	2600
4	5177	1636	5494	1629
4	5417	5722	5416	2014
4	5176	4211	5178	5488
4	5390	5177	1628	5387
4	3898	5286	3905	3903
4	5676	2894	4069	2890
4	4065	2891	5353	5352
4	3833	4069	5676	2894
4	3835	4068	3930	3931
4	5723	6036	5946	5676
4	4545	4548	4550	4551
4	6133	6128	1823	1777
4	1870	1823	5522	6128
4	6133	1727	6128	1777
4	6128	5526	1818	1728
4	4597	5338	2723	2719
4	4597	2723	5338	5612
4	4604	4506	4605	4879
4	5229	5338	4597	2719
4	5949	1772	4360	4358
4	4134	4133	4136	4124
4	4128	4129	4217	4130
4	5952	4811	4938	4941
4	5951	5838	5545	5645
4	5952	4941	2538	4810
4	5541	4816	5679	5852
4	5772	4393	4391	6087
4	5952	5645	5951	2537
4	5538	4601	4583	4584
4	5666	5678	5919	4817
4	4664	2701	4668	2700
4	5140	5143	4093	5858
4	5117	5142	4668	5147
4	5857	5854	3029	3030
4	5858	4093	5857	4645
4	5858	2699	4591	2704
4	4664	4668	2701	4667
4	5511	5510	5565	5969
4	5565	6050	2252	2256
4	5510	2252	5969	2167
4	5565	5969	2252	6052
4	4489	4026	5672	3947
4	3925	3959	3926	2687
4	5140	5857	5858	4093
4	3925	5141	5140	5103
4	5143	2691	3873	2695
4	3925	2691	5143	2696
4	3925	5143	3873	6107
4	4830	4093	5140	6107
4	3818	6028	5902	3819
4	5639	3993	5158	4452
4	3817	4599	4594	5204
4	5772	4391	5788	6087
4	5713	6071	2658	2119
4	3918	3919	3993	3992
4	5793	3981	5902	6053
4	6028	2657	5713	2658
4	3981	6070	5439	6021
4	6070	2280	5439	2361
4	6070	2209	6071	2119
4	4151	3894	3895	4149
4	6134	2119	6070	5713
4	5996	6209	2647	2156
4	5996	2646	5021	2157
4	6191	4577	4171	6208
4	4552	4553	5871	5305
4	5995	5022	5021	2157
4	5020	2632	5996	2633
4	5016	5995	5022	5021
4	5995	2343	5022	2276
4	5015	5022	4922	5016
4	5022	2157	5996	5021
4	6191	5996	2157	2156
4	2339	6191	5022	2230
4	5022	2343	5113	2339
4	6191	5996	2156	6209
4	6191	5996	5022	2157
4	4165	5480	4173	4579
4	6306	2748	2749	569
4	6306	570	2748	569
4	6306	570	6288	2748
4	6200	2748	5831	2752
4	6276	6288	5831	2748
4	5792	5790	2591	5501
4	6276	6288	2609	2595
4	6207	4949	4211	5178
4	3912	5721	5288	3906
4	6122	1814	5877	4214
4	6122	1814	4214	1764
4	6122	1764	5288	1731
4	6122	5721	1726	1731
4	5878	4055	1832	1826
4	5272	2508	5809	5555
4	4278	4892	5272	5809
4	5272	2509	4893	4278
4	5272	2555	5555	5277
4	4893	4239	4891	5344
4	5194	6092	4832	6093
4	5317	1725	5307	1834
4	5317	1834	5385	1739
4	5317	1834	5318	5385
4	1739	5385	5317	2827
4	6267	73	921	74
4	6254	73	6267	2601
4	6267	6310	74	922
4	4974	4976	6267	5928
4	6267	6310	5928	2600
4	5145	5144	5725	2144
4	4783	4782	6276	5831
4	528	5173	5144	2083
4	5144	2082	2639	528
4	2083	2638	528	5173
4	5173	2638	528	2639
4	5145	2639	5144	2082
4	5144	2183	3973	2144
4	5226	5246	1882	5130
4	5128	5226	5130	5246
4	5226	6095	1885	5566
4	5231	4779	4781	5240
4	5226	1882	5246	1840
4	5610	4721	5546	4723
4	6189	5551	5549	5295
4	5295	2575	5552	5548
4	5295	2572	5549	6189
4	5610	4723	5546	4788
4	5365	5546	5536	6091
4	5546	5816	4723	5873
4	5399	5400	4823	2259
4	5805	5377	2302	5399
4	2303	2302	5805	5377
4	5377	5399	4837	2387
4	4831	4822	4832	4833
4	4293	5083	5082	4296
4	4553	2221	5437	4631
4	4553	2215	4631	4548
4	2331	2225	4905	5926
4	3861	3945	2225	2176
4	3861	2232	3863	4904
4	3863	2225	4905	2333
4	2232	4904	2333	3863
4	5026	6312	5025	2744
4	5466	4326	4324	4327
4	6251	2608	5026	6312
4	4330	5026	2636	5025
4	4579	5041	4330	2635
4	4607	4493	4325	4326
4	5024	5025	2745	2744
4	3972	2753	6200	2752
4	3877	2756	4234	2760
4	3880	3979	2757	2761
4	3974	5501	5091	5090
4	3880	5264	3979	2761
4	4215	4233	3876	3970
4	3979	2761	5264	2762
4	3979	5264	2074	2762
4	5962	6002	2130	2216
4	4908	2181	6002	2216
4	5962	4904	3862	4908
4	3879	4908	3978	3862
4	6002	2074	3979	5264
4	6002	2075	3979	2074
4	3976	2181	6002	4908
4	2076	2075	5501	2183
4	5479	2883	461	2887
4	5481	6068	5723	5248
4	5353	5479	2887	2888
4	3934	5676	4064	4066
4	5044	4672	5230	5509
4	1746	2883	461	5479
4	6106	5477	5479	1746
4	4676	6045	5130	6044
4	5479	5050	5048	5049
4	4157	4503	4689	4082
4	4318	4322	2155	5217
4	4323	5607	4325	4320
4	4318	2103	5217	2155
4	2103	4318	4319	2738
4	6244	4318	2102	2734
4	4166	4326	4168	5017
4	4320	2734	5607	2733
4	3966	5579	4102	4384
4	6156	5992	1600	1601
4	5523	5524	5708	5355
4	5993	1602	5523	236
4	6286	5523	5993	1602
4	6286	5524	5708	5523
4	5993	236	5523	5468
4	5784	5467	6116	4442
4	5454	5839	5455	5943
4	4435	4061	5525	5344
4	6093	5385	2831	5382
4	4033	4405	4402	4836
4	4033	4402	4403	4836
4	4901	5616	4900	6252
4	4651	5108	5109	5821
4	3866	5283	3867	3872
4	3868	2198	5821	3866
4	4155	4756	4990	4148
4	3985	4846	1690	1691
4	4299	4297	2821	2817
4	4300	4298	5097	4301
4	4300	2184	2058	5499
4	4291	4289	2058	2826
4	4301	5097	4299	4298
4	5156	4131	910	5153
4	5156	4128	5011	5010
4	4785	4783	6213	5155
4	3879	4908	4902	4215
4	4125	4128	4127	4131
4	4785	6241	5150	6213
4	5440	4785	4786	3980
4	6030	5156	896	897
4	4238	5011	897	4235
4	5156	5011	5155	897
4	2188	6164	5966	2229
4	4567	4564	6096	5966
4	5966	6230	2219	2229
4	6096	2778	3944	4564
4	4563	3944	5966	5964
4	4563	5966	6230	5963
4	4300	5797	2060	2136
4	5095	5797	2269	2254
4	5096	2269	5095	6188
4	5797	5411	2254	5094
4	5372	5411	5797	5094
4	5797	5411	2061	2185
4	4709	5771	5772	4393
4	2295	2254	5094	5095
4	5098	2269	5095	5096
4	4114	4116	5411	6285
4	5867	6173	5807	5808
4	3827	5330	5331	5329
4	5005	5198	5197	5199
4	5331	6112	1865	5330
4	5331	5971	1911	1865
4	5606	4540	1606	5605
4	4662	6127	6113	2005
4	4162	6113	4662	6127
4	5489	5526	4162	6037
4	6127	1828	4084	5526
4	6127	1729	4084	1828
4	3870	3868	6184	2437
4	4756	421	4150	4155
4	2198	6094	2437	3868
4	3867	4756	4989	4156
4	4148	4756	4762	4150
4	4757	4150	4756	421
4	4757	4759	4150	421
4	5493	3870	3869	3874
4	3869	5999	4758	3868
4	5493	3870	6009	2440
4	5999	419	3868	6094
4	4394	4400	4279	4280
4	5999	420	3868	419
4	4204	4759	5942	6013
4	4616	4618	4004	4006
4	3867	3868	420	5109
4	3867	4989	3866	5821
4	5798	4346	336	337
4	4193	5492	4997	4195
4	4085	4094	4089	4090
4	4006	4613	4003	4614
4	5695	5697	4004	5262
4	5263	4984	2286	5380
4	4982	5112	5263	4984
4	4982	5263	4004	4007
4	4194	4008	4195	4996
4	4746	4094	4089	5432
4	5695	4004	4618	6067
4	4005	2204	5697	4617
4	5528	4380	4057	4059
4	4381	2393	5568	4369
4	5568	5732	2384	4378
4	5568	2464	4369	2393
4	5568	2461	5604	2464
4	5473	4950	2114	2205
4	5473	5495	5418	2114
4	5473	5416	2447	2109
4	3910	5894	5911	5917
4	5412	5473	4895	5418
4	5174	3900	5412	4948
4	4948	5416	4947	5473
4	3907	3903	5287	3910
4	5412	5494	3900	5177
4	4232	6313	899	4236
4	4232	898	4235	4236
4	4058	4382	4059	4539
4	4234	4232	6313	6305
4	4235	4232	5155	898
4	5717	5723	2163	6068
4	6036	2890	5676	4069
4	5757	5507	2020	5508
4	5507	2163	6068	2264
4	5507	6068	5105	2264
4	4475	1993	5165	1984
4	4980	5165	4896	4475
4	5164	1984	4475	5165
4	4478	4474	4475	1983
4	4047	5152	4303	4055
4	4980	2001	5923	6041
4	4054	6132	6121	5923
4	4466	6120	4478	4479
4	3961	3968	6083	3956
4	4440	6060	4441	2138
4	3961	6083	6060	2690
4	2690	3961	6061	6060
4	4440	5013	6061	2089
4	4440	6060	2138	2089
4	4383	5846	5606	4540
4	6156	5869	6157	1599
4	6157	5759	4944	6156
4	6156	1586	5759	5982
4	6169	2379	6056	4535
4	6169	4045	6056	6057
4	6169	2379	6057	6056
4	6057	5844	2460	6169
4	2431	2460	6057	5844
4	5050	5048	5374	5479
4	5492	5493	6009	6080
4	4916	5327	6043	5812
4	4718	2126	5251	2025
4	5999	420	4758	3868
4	404	1652	2025	2026
4	5817	1652	4718	4813
4	6094	2051	1670	419
4	4026	5810	4489	5672
4	4023	4026	5672	5810
4	5810	4482	4489	1924
4	4019	4020	4985	6170
4	5907	3806	5247	5242
4	5810	5506	1923	5671
4	4624	4623	4201	5824
4	4201	4623	6268	5782
4	4624	4623	5824	5767
4	5560	5549	5551	5534
4	4725	4833	4831	4900
4	4750	4978	4829	4831
4	3821	2051	1670	6094
4	4833	6093	6249	2832
4	2056	5397	6229	4827
4	4827	2021	2056	5397
4	4833	4834	4827	2837
4	4198	4758	3869	5999
4	6058	2671	444	21
4	5900	6084	6058	347
4	5711	6058	5900	5706
4	6058	5706	2667	2671
4	6058	347	6084	21
4	6058	2667	1752	444
4	4796	2844	4726	2843
4	4694	4696	6051	4697
4	1670	6094	5999	3821
4	4796	4726	1737	2843
4	452	1735	2851	1741
4	5427	4797	1793	1735
4	4797	1737	1740	1795
4	5244	4021	5034	4023
4	2844	4641	4636	4638
4	5999	4758	420	1675
4	4797	6046	1841	5428
4	4898	4897	4727	5428
4	4898	1846	5428	1841
4	4797	1737	4796	4726
4	4739	2812	5405	4465
4	4348	4351	4353	4352
4	4277	4892	4278	4397
4	5995	5859	2344	2213
4	4926	5859	5995	6214
4	5995	5022	2157	2276
4	5995	5015	5022	2343
4	5910	2343	5995	2344
4	5910	5015	5995	2343
4	5910	5015	2343	2418
4	6256	5995	5021	2117
4	5801	4693	2036	1979
4	5801	1988	4158	4693
4	4692	4690	2036	2133
4	6195	4690	2134	2037
4	4689	6162	4690	3840
4	4689	6195	4690	6162
4	4510	4690	2260	2134
4	4689	6195	6162	4503
4	4539	2942	5530	5500
4	4511	4507	2300	4514
4	4509	4507	4511	4514
4	4691	5068	4693	4158
4	4058	4540	4539	4536
4	4640	2848	4796	2847
4	3939	5563	3942	3938
4	4796	5427	4640	2847
4	4636	2849	4642	2845
4	5309	5242	4977	6024
4	5564	4639	3948	4799
4	4799	4793	5673	4792
4	5162	5165	4471	4896
4	5176	4211	5488	3843
4	4949	5891	4950	2205
4	4949	2505	4755	4754
4	5287	5894	3910	5753
4	4382	5605	4539	4540
4	4498	4685	4087	5402
4	4539	240	5605	5530
4	4050	4980	4049	4896
4	6168	4479	2162	2271
4	4469	4466	4471	6168
4	4527	4052	4467	4468
4	4052	4528	4530	4467
4	4513	4512	5521	4527
4	6168	5890	4469	2359
4	4469	4528	2356	2359
4	5630	2080	5800	2178
4	5630	4137	2143	2231
4	4536	1605	4540	4539
4	5515	4137	2143	4138
4	5628	2079	5688	5766
4	5628	5800	5629	5630
4	4834	2841	4699	2842
4	4833	2836	4900	2840
4	4834	2842	4699	2055
4	4834	2056	4827	2838
4	4833	4900	2836	6249
4	4833	2837	4827	2833
4	5594	2171	6229	2056
4	4138	5628	5629	5630
4	5594	2056	4834	2055
4	5594	2055	4834	4699
4	5594	4834	2056	6229
4	4825	4822	4829	4823
4	2129	2258	4696	5594
4	4725	4641	4700	4698
4	4127	4125	4124	5179
4	5957	909	5694	4131
4	5634	5633	2614	2613
4	2627	4141	5149	5633
4	5628	2143	5630	4138
4	4146	5630	5724	5181
4	5218	5219	5061	4145
4	4140	4141	2627	5633
4	4971	2614	5633	2628
4	5634	2614	5928	2600
4	5628	2628	4140	2627
4	4642	2054	4699	2846
4	4642	2850	4644	2053
4	4640	2852	4728	2848
4	5232	5691	5265	5266
4	4636	4728	4644	2849
4	4638	4726	4796	2844
4	2054	4694	4696	6051
4	6255	6253	6073	919
4	6255	919	6073	6006
4	4973	4930	4970	6000
4	4929	5214	5213	6006
4	6005	2616	5997	2617
4	4929	6006	6007	5214
4	6130	4131	5694	895
4	5699	6129	175	2943
4	6266	174	6032	175
4	5699	2953	4763	2943
4	4875	5010	6130	6032
4	5627	895	5694	894
4	5628	2079	5766	2642
4	4139	5634	5149	5633
4	5845	5969	2250	2167
4	3808	5845	2250	2265
4	4588	5788	4391	4866
4	5845	2052	5472	2050
4	5511	5969	5845	2167
4	4588	5788	4866	4660
4	3808	2250	5845	5969
4	6051	4644	5882	2053
4	4866	5059	5007	3037
4	4155	4151	1694	4149
4	4866	4391	4894	5059
4	3992	5712	2211	5806
4	3992	2358	5806	2211
4	4866	4660	5788	3028
4	3991	6070	6134	3990
4	2128	6051	4696	2261
4	4621	6066	5582	5580
4	5906	4643	6051	4697
4	4699	4694	4696	2054
4	4696	2055	4699	2054
4	4700	5594	4696	5785
4	4696	2055	5594	4699
4	5036	567	6243	2746
4	4329	2746	5036	2104
4	5036	2636	567	566
4	340	1715	4490	5804
4	4445	4444	4201	5936
4	6081	4377	1714	4365
4	5897	6081	6086	1829
4	5804	1766	5897	5834
4	4186	6086	5897	6081
4	6081	1779	6086	1829
4	6081	1714	4377	1779
4	4646	5994	2237	2179
4	4647	4551	4648	5609
4	4635	4878	5994	2098
4	5994	2098	4878	2099
4	5994	4612	2237	2238
4	5994	4612	2238	4532
4	4652	5396	5229	4506
4	4609	6244	2100	4605
4	4568	6096	4566	4567
4	4568	4566	2785	5976
4	4568	5976	2784	6224
4	4568	5976	2785	2784
4	6187	5585	5657	4932
4	4048	4307	4308	4206
4	4303	5965	5520	4963
4	4304	4961	5916	5965
4	4961	1877	5965	4963
4	4961	1904	4686	5916
4	3979	6002	3978	3977
4	3977	6002	2075	3979
4	3977	6002	2181	2075
4	3977	2315	3973	2183
4	3977	2315	3976	3973
4	5790	2638	527	2083
4	5104	5755	5756	5509
4	5698	1736	5075	6098
4	5133	2873	5266	2869
4	5729	5730	4541	5071
4	5054	2876	5135	5698
4	5043	5375	6098	5246
4	6098	1736	1744	1789
4	4201	4623	5936	6268
4	1800	5729	5078	1843
4	5071	5078	5729	5730
4	6258	5212	6219	2564
4	5133	5073	5074	5075
4	1744	6098	5078	5075
4	1744	5071	5073	5075
4	5075	1736	1744	6098
4	5246	5076	5730	5078
4	6116	5987	5990	4954
4	4152	5796	4852	4851
4	5132	5796	6290	5989
4	2631	5997	5023	4928
4	5796	2483	5888	2412
4	5889	2483	5796	5895
4	4658	5741	5901	5649
4	4967	6157	5741	5647
4	4415	4951	4945	4414
4	6171	1569	5901	1570
4	6171	5741	6123	1584
4	5741	5647	1570	5650
4	2124	2070	3945	5964
4	3865	3869	4760	3867
4	5299	3946	2773	6228
4	2071	3858	3859	3945
4	3858	3946	2071	2774
4	3945	5925	3863	2225
4	3861	2225	3863	2232
4	3945	2228	5925	2225
4	5259	4384	4390	4622
4	5256	5652	5261	5255
4	5422	5423	5426	5955
4	5581	5551	5425	4722
4	5261	5652	2998	6022
4	5836	6259	4174	4175
4	3030	3020	4174	5854
4	418	1670	2049	2051
4	6259	6158	5854	3019
4	6158	5835	6259	5854
4	5256	5258	3009	3019
4	4001	5123	3999	5115
4	5722	4948	5416	5178
4	5178	5813	5722	5387
4	4947	2447	5416	2111
4	4306	4307	4821	4305
4	3903	5175	3899	5286
4	3910	5702	5894	5917
4	6080	2366	6009	2288
4	4635	2717	4878	2718
4	4589	2708	4894	2712
4	4654	5229	5110	4653
4	4647	2717	4648	4635
4	4631	4646	2215	2131
4	4646	2237	4548	2215
4	4646	2098	4635	5994
4	4610	4646	4635	5994
4	4635	4646	4631	2097
4	4646	2097	4635	2098
4	5772	4552	5436	4551
4	3805	3807	5969	6052
4	5244	5312	4272	5238
4	4238	4235	898	4236
4	4237	2913	4238	4230
4	6031	4906	5011	4238
4	3978	3979	3880	5264
4	4906	5222	3879	4231
4	4558	5249	5733	5221
4	5049	2880	5054	5698
4	5052	5049	5698	2879
4	6098	1749	5052	5698
4	5585	4572	5583	6201
4	4572	6187	5583	6221
4	4569	4574	4575	4871
4	6137	2918	6201	6138
4	5585	6201	5583	6246
4	4572	6221	5583	6201
4	4497	5912	5334	5914
4	4767	4428	4180	5843
4	4178	5637	5334	5636
4	4181	6086	6081	4377
4	4181	6081	4365	4377
4	5358	4995	3984	3986
4	4605	2100	4879	2726
4	6244	544	2730	543
4	6244	2730	5607	2734
4	2123	4609	6245	2100
4	4605	4879	2725	2726
4	4609	4879	4605	2100
4	4492	4606	4609	4605
4	4610	4883	5994	4878
4	4883	4532	2217	4850
4	4883	5994	2099	2189
4	4883	5994	2238	4532
4	4883	2099	5994	4878
4	4879	4609	4883	2099
4	5405	6149	6278	2808
4	6080	2288	5904	2200
4	5368	6147	5371	5370
4	4114	5406	6285	5094
4	3996	4271	4999	5572
4	6017	5371	6149	6148
4	5409	5411	2062	2061
4	5409	2062	5411	4116
4	4113	4115	2063	4118
4	6257	2063	4116	2147
4	6257	4118	2063	2064
4	4118	4113	6257	2063
4	5379	2200	6080	5904
4	6257	2244	4119	4228
4	6257	4119	2244	2247
4	4100	5988	4102	4101
4	5260	5823	6193	5115
4	5253	5256	5254	5258
4	5253	5255	5256	5261
4	4701	4703	5426	6185
4	4099	4447	4101	4390
4	5106	2881	5508	2882
4	5508	5757	5106	2882
4	5044	5106	5104	5045
4	5054	5698	5135	5043
4	5757	5268	5136	2878
4	5080	5430	5726	5431
4	5918	5430	2819	5431
4	5726	6065	5086	1580
4	5918	2819	5430	2815
4	5179	5518	5182	5516
4	2641	5800	5441	5629
4	2047	2200	2049	3820
4	5628	2641	5800	2080
4	5628	5630	2080	5800
4	4127	4124	4140	4138
4	5441	4141	2627	5629
4	4634	4587	2710	2096
4	4634	4635	2097	2714
4	5437	2096	4631	2187
4	4631	4646	2131	2097
4	4634	2710	4587	2709
4	4550	5437	4553	5303
4	4553	4631	2215	2221
4	5437	4631	2221	2187
4	2221	2325	2215	5871
4	2324	2221	5305	5871
4	4631	2215	4646	4548
4	2097	4635	4634	4631
4	4550	5437	4587	4634
4	6096	2781	4568	2785
4	3944	2778	518	519
4	6096	2781	2778	4564
4	6235	6096	2786	2068
4	6096	2785	4566	2786
4	4568	2781	4564	6018
4	5966	2069	2068	2188
4	6164	6142	2151	6235
4	5608	6164	6096	4566
4	6166	5608	6230	6167
4	6165	6230	2229	2326
4	6235	6096	6164	4566
4	5608	6164	6230	5966
4	5492	5904	6080	6009
4	6165	6164	2234	2229
4	5709	5982	5759	1586
4	4974	4975	907	921
4	4288	6302	5216	5998
4	5515	5216	5998	4288
4	4974	6267	4975	921
4	5063	5057	893	177
4	176	5183	6150	177
4	5707	1573	5708	5709
4	4763	5215	6129	4764
4	5097	6188	5095	5797
4	5355	5708	5367	5524
4	6188	2269	5095	5797
4	2059	2058	4300	2184
4	4300	4293	4301	5499
4	5883	5076	4487	4541
4	4541	5073	5072	4543
4	5073	4543	1743	2863
4	5073	1744	5075	2867
4	5728	5729	1743	1792
4	5729	1800	5078	1744
4	4024	4019	4020	4775
4	1792	5728	5729	1842
4	4340	5847	4353	5846
4	3939	5728	4541	4543
4	5729	1743	5073	4543
4	5729	5073	1743	1744
4	5729	5071	5073	1744
4	5232	5233	5692	5234
4	6287	6237	6317	6231
4	5980	6274	6237	4871
4	6237	2788	4871	6274
4	6237	4871	2792	4870
4	6237	2792	4871	2788
4	4222	5601	6144	5602
4	3861	2232	5962	2180
4	3859	3861	3860	2073
4	5962	4904	2216	2232
4	3860	5962	5264	2073
4	5962	2074	5264	2073
4	3978	6002	5962	4908
4	5962	2074	6002	5264
4	5332	5333	5334	5637
4	5333	5334	2584	4463
4	6139	2496	4463	2545
4	6139	5335	2545	4463
4	4497	5912	4179	5334
4	5412	4948	4895	5473
4	5853	5161	5205	5157
4	5280	5343	5347	4376
4	4988	6139	4463	5335
4	5700	4994	5949	5950
4	5162	4208	4895	4896
4	5870	2448	6215	5893
4	4687	4649	5916	4214
4	5013	6061	2089	2682
4	5013	2089	5014	2088
4	5446	5449	4423	4414
4	2088	2678	5009	5013
4	5013	4966	4655	5009
4	4966	3960	6061	5013
4	5377	5376	2488	5828
4	4406	5377	4837	5828
4	2488	5828	2387	5377
4	4573	6142	5512	6180
4	6165	6142	6180	2234
4	6235	6164	6142	4566
4	5465	5759	5709	5982
4	2150	5512	6142	2222
4	5391	1912	5829	1911
4	1734	6059	2859	4543
4	5829	1872	5331	1911
4	5504	2865	5503	2861
4	4824	5189	5188	5400
4	6059	3941	6047	1742
4	6059	1791	5728	1734
4	3937	3948	4799	5564
4	5503	2865	5265	2866
4	4121	6257	4229	4118
4	4225	2148	4229	4228
4	4229	6257	2064	4118
4	4229	6257	2186	2064
4	4229	2244	6257	4228
4	4229	2065	4218	2064
4	4125	4131	4126	4123
4	5927	4131	910	909
4	4139	5151	5149	5634
4	5634	2600	5928	6310
4	4129	5149	5150	5440
4	5634	2614	5633	5928
4	4817	4143	4142	5919
4	5541	4789	5679	5678
4	4815	5578	5137	4183
4	4817	5919	4142	2983
4	5678	4819	5930	2993
4	4815	4142	4820	4817
4	5601	5780	6145	6144
4	2808	4294	5405	6149
4	5369	6065	6233	5876
4	6146	5769	6147	1608
4	6148	1608	6146	6147
4	5780	6145	2912	2922
4	5153	5927	5151	4131
4	5927	5151	6307	5153
4	6309	5150	2598	2597
4	5151	4131	4128	5153
4	5149	2612	5634	5151
4	5634	2598	5151	2612
4	4217	4235	4233	4783
4	4033	3830	4028	4407
4	5827	6026	2513	4333
4	6026	6297	2513	2560
4	2593	4333	2513	2585
4	5393	1912	5829	5391
4	4402	3830	4752	5195
4	3869	6094	5493	5999
4	4888	5281	5867	4430
4	4167	4168	5794	6211
4	5019	2620	5480	5018
4	6238	6239	6240	902
4	5019	5018	6304	2606
4	5019	6239	5861	6304
4	6238	5861	916	917
4	4049	6122	5878	5877
4	4051	5152	5321	5322
4	4054	5878	6121	6132
4	5878	1832	5877	1784
4	5878	6122	1726	1784
4	5133	5136	5267	5266
4	4669	4626	4673	4676
4	5042	5046	5051	5043
4	5135	5698	5075	5077
4	4667	4666	2094	2702
4	4667	5956	2094	4666
4	4667	2701	4666	2702
4	5438	6271	2241	2140
4	5956	2239	6271	2141
4	4486	5563	4488	5883
4	5227	5076	5566	5226
4	5763	6050	5565	2256
4	4541	5563	4486	5883
4	5762	5233	5510	5565
4	5956	3999	2235	5303
4	5956	2141	6271	2094
4	5956	3999	6271	2239
4	5956	2094	4666	2095
4	5956	3999	2239	2235
4	5437	2221	5303	2235
4	4557	3883	6263	6019
4	4557	6264	5734	6109
4	4563	6230	6167	4559
4	3876	3879	3882	4231
4	3856	3857	3883	5298
4	4312	4717	4718	4103
4	4098	4072	2283	2438
4	4717	4103	2017	2026
4	4717	2126	4718	2026
4	4072	2017	4717	4103
4	2212	4724	2362	4717
4	4072	4717	2196	2362
4	5171	5007	5059	3037
4	5171	5007	3037	576
4	5007	577	3037	576
4	5007	2711	4894	2707
4	4866	3027	4391	5059
4	4895	5473	5495	5418
4	5418	380	5165	5419
4	2018	5165	5418	380
4	5419	1637	5494	5418
4	3902	3900	5419	1630
4	5162	5165	5419	5418
4	3859	3860	3858	2770
4	3860	2073	5264	2766
4	3855	3945	3859	3858
4	3861	2180	5962	2073
4	3862	3860	5962	5264
4	3860	2769	3858	2770
4	3855	4565	3864	3863
4	3861	2225	3945	3863
4	3859	2176	3861	2072
4	3855	3859	3860	3858
4	4221	4229	4219	4218
4	4226	4219	5512	4220
4	5154	5512	2066	2149
4	4219	2148	4225	2242
4	5711	5900	347	346
4	4668	5147	2697	4667
4	5438	2093	6271	2140
4	5142	5140	5118	4668
4	4667	5438	5147	2093
4	4667	2094	6271	2093
4	4667	2094	5956	6271
4	5341	1867	6154	1823
4	4431	4094	4437	4436
4	4038	4632	4518	4633
4	4626	4045	4630	4629
4	5341	5325	1913	5326
4	5148	6154	5324	5520
4	4529	4052	4530	4525
4	5341	1823	6154	5522
4	2017	5170	406	4104
4	4104	4103	1657	1653
4	4103	4104	4072	2017
4	5169	5170	4013	406
4	4085	4089	4087	4092
4	3989	3924	3928	2085
4	3989	2085	3928	2152
4	3989	3990	2152	3928
4	3922	3989	3988	3921
4	4516	4302	4052	4303
4	4630	5614	5844	6169
4	5844	6296	6057	2431
4	4630	5844	6057	6169
4	5844	5614	2494	2460
4	2583	2493	5643	2494
4	5643	2494	2493	5844
4	4507	6056	2383	2301
4	4507	2300	6056	2301
4	4507	6056	2300	4514
4	4692	5644	4511	2272
4	4510	2320	4507	3837
4	4507	5716	2320	2383
4	4045	4507	6056	5716
4	4511	4690	2267	2260
4	5803	5707	5367	4490
4	5707	5709	4496	1573
4	4496	5758	5703	1572
4	5711	347	5900	6058
4	5803	5707	341	1574
4	5446	5447	5983	4415
4	5438	5122	2243	2241
4	5956	4665	4667	4002
4	5147	2694	6101	6083
4	5147	6101	2694	2092
4	5438	2174	6101	2092
4	5438	6054	2243	5122
4	5438	6102	6101	2174
4	2174	2243	5438	6054
4	5438	6271	4667	5117
4	2093	6271	4667	5438
4	5033	5233	5234	5763
4	5510	5511	5503	2048
4	5762	2046	5265	5691
4	5762	5233	5691	5265
4	4544	5505	5429	2857
4	5504	2860	3941	4543
4	5033	3810	3805	4022
4	5503	2048	5505	2862
4	3887	4840	4841	5474
4	4840	1906	4314	1858
4	4077	4805	5745	5252
4	4840	4526	1860	1815
4	5201	5853	5711	1720
4	1703	1815	4526	4840
4	4074	4887	5166	5000
4	3888	5028	4681	4678
4	5437	4665	4666	5956
4	2096	4631	4634	5437
4	4553	5437	2221	5303
4	5437	2095	5956	4666
4	5437	4587	2096	2095
4	5483	5387	1627	1634
4	5924	5483	1633	1634
4	5484	1625	5032	1632
4	4211	5178	5488	6207
4	5488	5483	5487	5387
4	5486	5485	5502	1626
4	4041	5340	6037	5351
4	4067	3933	4504	4065
4	4162	6037	5526	5350
4	5489	4164	5235	6155
4	6037	1845	5350	5351
4	6037	6155	1945	5340
4	6037	1866	6155	5526
4	2048	5511	2167	5510
4	5565	5033	3943	3809
4	5510	2252	5565	5969
4	2252	5762	5510	5565
4	5762	5510	2046	2166
4	5510	5503	2046	2048
4	5762	2256	5763	5565
4	5762	5233	5265	5503
4	6010	6103	6100	2525
4	6010	2527	5533	6186
4	6010	5580	2570	2568
4	6010	6066	5580	2568
4	2159	6120	6048	2255
4	4470	6048	4467	5644
4	4466	4474	6120	4473
4	5711	1720	5710	346
4	6277	6148	6233	1609
4	6148	6233	1608	6147
4	5202	6058	5711	5203
4	6148	242	6146	1608
4	6145	242	6148	243
4	6145	243	6316	6315
4	4737	6027	5680	3819
4	6012	2652	3819	2653
4	6027	6012	1697	5680
4	6012	5680	434	1697
4	3982	5902	3981	6053
4	3983	3814	3813	3816
4	6012	434	2653	433
4	5403	5401	1975	1916
4	6216	5401	5475	1975
4	4887	3852	5401	4074
4	5459	5402	5458	1896
4	5402	1947	5458	1896
4	4684	1916	5403	5574
4	4680	5959	4755	5958
4	4213	6122	1764	5288
4	6000	2629	5766	2643
4	5766	6004	6000	2643
4	6256	2213	5995	2117
4	5157	5711	5853	5710
4	533	2078	2644	2077
4	4971	4970	2615	2629
4	4960	5885	4449	4964
4	5461	4746	5432	1965
4	4431	4306	4305	4962
4	3920	3923	2670	2674
4	5161	5205	5158	5314
4	3923	2670	2085	3924
4	2086	2085	3923	2670
4	5178	4948	5416	4947
4	3923	2085	3928	3924
4	3988	2665	3921	3989
4	3989	2084	6134	2662
4	5061	6076	5064	5213
4	5064	891	5213	6076
4	5058	4731	4133	5055
4	4167	4581	5743	5120
4	5064	4145	5061	4144
4	5063	892	5056	5064
4	6314	6273	6301	2679
4	6273	6077	294	2679
4	6273	294	1596	295
4	6273	6079	295	1596
4	6273	6301	6079	6062
4	6172	1597	3953	6062
4	5066	5068	5067	1998
4	6133	5067	1727	6125
4	5069	6125	5322	5066
4	5067	1997	6113	2006
4	5067	2006	6113	1728
4	3996	4196	4195	4197
4	4618	1672	4616	1671
4	4005	4007	5263	5380
4	6067	4619	4711	4004
4	4692	6048	2272	2161
4	4473	4470	5070	4693
4	4470	6120	6048	4473
4	4473	2159	2035	2034
4	6048	2159	2035	4473
4	6048	4473	2035	4693
4	6133	1717	6152	6125
4	6133	6125	1727	1717
4	6133	1823	5522	6152
4	5697	2204	5262	4010
4	1757	4712	1681	5407
4	4714	409	4261	1759
4	4705	4619	4714	5407
4	4261	4254	6067	4714
4	4618	407	5697	5695
4	5148	6154	5341	5325
4	5341	6154	5148	5522
4	5341	6154	1867	5325
4	4512	4511	5644	4514
4	4959	5324	5325	5323
4	5458	4087	5402	5459
4	4311	5677	4724	5815
4	6061	3967	4966	4440
4	4440	2248	5014	2173
4	4441	2246	4439	2138
4	4965	3960	3952	3967
4	2246	2309	5451	4439
4	4440	2248	4439	5014
4	3968	4440	6060	4441
4	4966	4440	3967	4439
4	5453	5463	4967	4968
4	2248	5740	2306	4439
4	4804	5934	1640	5932
4	4805	1655	5929	4803
4	4803	4800	4716	4814
4	4801	4840	5945	4841
4	4839	4840	4526	1860
4	5887	1894	4314	4807
4	5887	5945	1702	1641
4	4438	6215	6220	5893
4	4521	6220	5890	5893
4	4449	4746	4437	4089
4	6220	6215	2495	2434
4	4072	4717	2362	5815
4	4072	2017	4104	5170
4	5166	5818	4315	4295
4	4104	4309	4312	4072
4	4309	4096	4310	4097
4	5168	4098	4072	2283
4	2340	2226	4288	4137
4	5215	5627	5699	6129
4	4136	4137	4288	5515
4	4288	2341	6302	5998
4	4134	4138	4136	5515
4	6013	1685	6015	1755
4	5896	1679	6003	1680
4	6003	1679	5571	1684
4	5722	5416	2111	5813
4	6015	6003	5571	1684
4	3853	4685	5402	5403
4	5402	4887	5401	5985
4	4685	5458	5402	1947
4	4685	5402	5403	1916
4	4686	1938	4964	4685
4	5402	5985	5401	1863
4	5159	5899	4661	5875
4	4658	6171	4967	5899
4	3913	4656	3927	3915
4	4655	5008	4656	3915
4	4655	5009	3920	5833
4	3918	3990	3989	3928
4	6033	6034	6275	3964
4	4100	5988	6279	6303
4	5943	5839	5455	5789
4	6260	3011	6034	3964
4	4423	4422	4416	2450
4	5668	2449	2450	4423
4	4413	4416	4423	4422
4	5760	6248	5761	2731
4	6300	184	5760	3033
4	5760	7	2731	572
4	5760	6248	7	184
4	4493	4578	6300	6298
4	5760	5612	572	2727
4	4952	5705	5445	6023
4	5449	5446	5450	6023
4	5277	5984	5273	5272
4	5450	2507	5449	6023
4	4413	4420	4416	4422
4	5174	5722	5177	5387
4	4968	5740	4420	4656
4	5320	4420	4422	6175
4	4420	4416	2386	5701
4	4439	2246	4441	5451
4	4439	4441	5452	5451
4	5451	2388	5701	2306
4	4439	2306	2309	5451
4	2248	2309	4439	2306
4	5924	1634	5722	5387
4	5722	1635	5387	1634
4	4139	5927	5634	4126
4	6130	4131	896	5010
4	6130	5627	895	5694
4	5959	2289	5915	4724
4	5959	5958	2289	4755
4	3851	6216	5960	5574
4	3851	5403	6216	5574
4	3851	6216	5401	5475
4	4677	2116	5029	2113
4	5030	4677	5029	2113
4	388	2015	2027	4677
4	383	1635	5722	2030
4	5027	5030	2112	2113
4	3892	3844	5915	4075
4	5933	5252	4805	5167
4	5252	1646	5167	1642
4	5933	5252	1642	2028
4	2158	2116	5252	2028
4	5252	5939	5745	2158
4	2030	383	2014	5722
4	3889	5745	4719	5029
4	5252	2116	4677	2027
4	5830	5329	5195	5331
4	4889	5638	6297	3871
4	6097	2560	6297	5638
4	6097	4427	5947	5843
4	5972	6011	6085	5807
4	6115	5469	2982	5468
4	6115	2992	5940	3963
4	5987	3965	5988	4954
4	5987	5579	6181	6218
4	6116	5467	5434	4442
4	6115	2971	5936	2981
4	6115	6268	2972	5469
4	4776	4778	4780	4774
4	4250	5241	5689	4779
4	5127	4246	4744	5139
4	4244	4252	4246	4744
4	4243	5262	5111	4862
4	6008	422	4150	4759
4	5937	6008	5346	4759
4	6008	5348	1850	1895
4	5722	5416	2014	2111
4	6008	5348	1895	1944
4	5937	6008	1852	1944
4	5429	2857	5472	2853
4	5033	4542	3940	5233
4	6047	1797	4799	3942
4	1741	5427	2851	5564
4	5564	1742	3941	2855
4	4544	2856	3941	2860
4	5429	5472	2857	5505
4	5900	346	5901	1569
4	5711	5710	5900	346
4	6265	5900	5901	1569
4	5900	5706	6058	6084
4	5898	6011	5971	6112
4	3828	5378	5005	5197
4	4889	6097	6025	6297
4	6025	6161	2459	5828
4	4028	4405	4406	4768
4	6025	2539	6097	5947
4	5371	6148	6147	6233
4	6277	1609	6233	1595
4	6277	6316	6148	1609
4	6277	1595	6233	6232
4	6149	2803	6316	2807
4	6149	6278	2807	6316
4	4741	5372	5099	5369
4	4966	4440	5013	6061
4	4440	2173	5014	2089
4	4440	2089	6061	6060
4	4440	5013	2089	5014
4	6171	1569	6265	5901
4	6265	5875	5900	6084
4	6314	6273	6172	6301
4	6172	6301	6273	6062
4	6314	2676	5875	2675
4	6265	6172	6314	6077
4	5642	4533	4612	4546
4	5774	4708	4709	5611
4	5774	3015	6292	4601
4	4393	5774	4602	3016
4	4393	4600	5609	4392
4	4465	5430	2815	6232
4	6277	4465	6232	6233
4	4465	2815	5430	2816
4	5369	5430	6065	5086
4	5093	5370	5371	5406
4	5369	4465	6278	6233
4	5369	5430	4465	6065
4	4739	2816	5430	4297
4	4413	4418	5446	4415
4	6314	5875	6077	2675
4	5899	5159	5900	5875
4	6171	6172	6265	1583
4	6314	6077	6172	6273
4	5899	6314	6265	6172
4	6265	1582	6172	6077
4	6265	5900	1569	1568
4	6265	6084	5900	1568
4	4017	5903	6272	6170
4	6272	2430	6174	6170
4	6272	6174	5820	6170
4	6272	2425	6174	2430
4	6272	5311	2425	2465
4	6051	4697	2261	2270
4	5857	4660	4645	3039
4	5882	5906	2270	2265
4	5857	3030	4093	4174
4	5882	2053	4644	2052
4	5882	2052	5845	2168
4	5882	5472	5845	2052
4	5845	5472	4637	3809
4	4285	5675	5238	5310
4	5764	4983	4857	4485
4	4273	5506	5714	5811
4	5714	4999	1902	5905
4	5714	5765	5811	1900
4	4326	6212	5017	6293
4	6240	901	6299	6212
4	6240	6212	887	901
4	6311	2735	6293	6248
4	6299	6250	6311	900
4	4317	4326	4327	4324
4	6300	6298	4578	3023
4	4326	6210	5761	4578
4	4318	2155	4322	2191
4	4317	4318	5217	4322
4	4318	2191	4322	6245
4	4320	4318	5607	2734
4	4319	2738	4318	4320
4	4997	5904	6009	4336
4	4318	2738	2103	542
4	542	2734	4318	2738
4	4318	2734	4320	2738
4	4020	4019	4021	6170
4	6145	6149	6315	6316
4	6017	6145	6149	6144
4	6149	6144	2804	4294
4	6149	6316	2803	6315
4	6017	6147	6148	6146
4	6150	5699	4763	5183
4	5061	5056	5213	5064
4	5699	5627	175	6129
4	5699	6129	2943	4763
4	4729	4288	5519	6302
4	4917	4919	4920	4933
4	4918	6227	4919	5575
4	4918	4932	5575	4919
4	5560	5533	6010	5580
4	4919	6227	4920	2936
4	6238	5019	5861	6074
4	5017	5019	4167	4580
4	5860	5742	6074	2605
4	6075	917	5860	5861
4	5019	2605	6074	2619
4	4922	5021	4928	5016
4	4923	5743	6075	6074
4	4929	6005	6006	5213
4	6005	6007	2617	5997
4	4969	4975	4976	6005
4	4969	2615	6005	4976
4	6255	6007	6005	6006
4	6005	2601	4976	2615
4	4683	3854	3911	3910
4	3848	4754	4755	5677
4	4682	4684	4687	4686
4	4212	4821	5891	4754
4	3853	4684	4685	5403
4	4685	5403	4684	1916
4	3845	5574	3851	5960
4	4683	5702	5917	5574
4	4308	4471	4206	6168
4	4687	4649	5917	4684
4	5548	4912	5534	5549
4	4412	2964	5664	5665
4	5663	5666	4938	5679
4	5666	5678	5664	5919
4	4934	5545	5838	5645
4	4940	5665	5196	5664
4	5666	4730	5919	5664
4	5665	2965	2964	4881
4	6027	1697	6012	1693
4	6028	2653	6012	3819
4	3918	3917	3993	3919
4	5793	6071	6021	2209
4	6028	5713	5902	6071
4	6028	5902	3819	6027
4	6009	2501	2440	3870
4	5164	4477	2162	2195
4	5162	5164	5495	4477
4	5164	1983	4475	1984
4	1983	4478	5164	4475
4	6080	6009	5904	2288
4	4478	2032	5164	2162
4	2033	2032	1983	4478
4	4478	4475	4466	4477
4	5164	5162	5495	2018
4	4906	4238	5979	5222
4	4782	2752	5831	6262
4	5792	2624	6276	2623
4	3974	5792	5790	5173
4	4474	2033	4478	6120
4	4478	2162	4479	2121
4	6009	4334	4336	2439
4	2033	1983	4474	4478
4	6120	2033	4478	2121
4	4478	2162	5164	4477
4	4475	5164	4477	4478
4	6121	472	2010	5923
4	5923	472	2010	2009
4	6121	1771	6132	1778
4	5923	6152	1771	1717
4	6132	6152	1771	5923
4	1716	1771	5923	6121
4	6009	3870	3874	2501
4	6121	1778	5878	1726
4	472	1716	5923	6121
4	4600	4602	4603	4392
4	5537	4602	5774	4601
4	5774	4602	3015	4601
4	4585	4590	4664	4665
4	4997	5904	4195	5492
4	4602	4603	3015	4601
4	5395	5772	4551	5609
4	4600	4602	4393	5771
4	5774	4709	4393	5771
4	4545	4552	4553	5871
4	3027	3017	4391	4392
4	5437	4631	4634	4550
4	4654	5395	5059	5110
4	5027	1631	5028	388
4	5027	2112	5031	2015
4	4681	5958	4680	5921
4	4681	5921	5030	5958
4	5030	5029	2208	2113
4	3892	5958	5030	5915
4	5826	2457	4335	4333
4	5826	4335	2457	6176
4	6210	886	6212	6248
4	6210	5761	5760	6248
4	6210	887	6212	886
4	2366	2440	6009	2501
4	6210	6248	6212	6293
4	4865	4011	4862	4010
4	4862	2548	5262	2503
4	4862	5262	2548	4010
4	4243	5111	5262	5112
4	4743	4258	4744	5139
4	5111	5112	2503	5262
4	6145	6146	6148	242
4	6145	6146	242	2922
4	6145	6146	2922	5779
4	6145	243	6148	6316
4	5780	2912	6145	6315
4	6145	6149	6316	6148
4	6078	3926	3042	6107
4	6078	5102	231	6062
4	6078	3032	6107	3042
4	6107	5103	3955	3925
4	6078	230	3926	6079
4	6078	6111	3032	5102
4	3982	6053	4846	1691
4	4156	1690	5109	420
4	4151	4846	4156	1690
4	3987	3985	3982	4846
4	4148	5348	5948	1850
4	4148	3896	4147	5038
4	3811	3817	3822	3812
4	4846	1687	6053	4845
4	6192	2233	6208	2207
4	4171	6208	4328	6192
4	2207	5041	4329	6208
4	6192	5041	2648	2649
4	2192	2132	6192	2649
4	6191	2156	6192	6209
4	6191	4171	5113	5022
4	4653	5059	4392	3026
4	2192	2156	2648	6192
4	4771	4769	4874	4791
4	4765	6129	6032	4875
4	3978	5264	6002	3979
4	4873	4874	4905	4791
4	6126	2943	4765	4736
4	4877	4905	4874	4910
4	5270	5337	5338	3035
4	5171	5270	2715	575
4	6160	484	2901	2900
4	3839	3834	3832	4500
4	4067	4079	4065	4504
4	6160	485	2901	484
4	4663	4505	1994	1995
4	4083	4161	4663	5687
4	5881	4079	2896	2900
4	3933	4065	5353	5352
4	4157	5801	4689	6195
4	4083	5881	5687	4663
4	5337	5747	5603	3024
4	4689	4690	6195	5801
4	4083	4163	4082	4078
4	1995	4163	1996	4161
4	5881	6105	1794	5687
4	4501	6049	2039	4500
4	4501	6049	6177	1976
4	4502	4505	6177	6160
4	6177	6160	1985	485
4	4160	5350	4162	4084
4	4691	4512	4511	5644
4	4511	2272	5644	4514
4	4688	4689	5801	4690
4	4510	4511	4507	2301
4	2267	2272	4511	2300
4	6036	2019	2886	491
4	6036	2890	491	2886
4	5051	5050	5048	5374
4	5171	5270	4653	5110
4	5946	6036	2886	2890
4	5946	2889	5676	2890
4	5478	2888	4064	2889
4	6036	2163	5507	2019
4	6200	6306	6276	2748
4	5092	2752	6262	2756
4	4782	6200	6276	5831
4	5792	6200	2623	6276
4	4654	5059	4653	5110
4	6200	2748	6276	5831
4	5091	6199	2750	5501
4	3876	3880	3877	2760
4	6251	5024	2740	2744
4	4330	4319	5024	5036
4	5024	2744	5026	5025
4	5471	2736	6293	2740
4	5471	2736	4607	5761
4	4327	5024	4330	4319
4	4330	5036	5025	2636
4	4327	4330	4329	4319
4	4324	4319	2737	2741
4	5048	5042	5051	5052
4	5052	1801	5375	1803
4	5698	1736	6098	1749
4	5698	459	1749	5052
4	2875	459	1749	5698
4	6106	2879	5052	1745
4	1801	1749	5052	6098
4	5052	2879	5698	459
4	4459	4453	4418	5668
4	4951	2455	4414	6038
4	5983	5992	6156	5993
4	5983	6156	5982	5993
4	4955	5455	6205	4956
4	4558	4561	4557	5250
4	4557	5734	4560	6109
4	2070	3944	3945	5964
4	3944	2778	3946	4564
4	2777	6228	3946	4564
4	2774	3858	3859	2071
4	3859	2770	3858	2774
4	5865	2977	5816	5873
4	5865	2966	6091	4880
4	4653	3026	4603	3025
4	5865	2977	5873	6091
4	4723	5816	2987	5873
4	5425	6190	4703	5297
4	5816	2986	4788	2987
4	2042	5268	2874	5266
4	5757	5136	5106	2878
4	5268	2153	5269	2042
4	5136	2877	5106	2878
4	2153	5756	5268	5693
4	5270	5229	5110	2715
4	5047	5509	5105	6068
4	5135	2872	5698	2876
4	5724	5441	5145	5800
4	4784	5724	5145	5725
4	5145	5800	2081	2182
4	5145	2144	5725	2182
4	5145	5441	2639	2640
4	5145	5144	2144	2082
4	5146	5145	5441	2639
4	529	2639	5145	2082
4	4237	5863	171	2903
4	4237	2913	4230	6263
4	3856	3883	4557	6019
4	4237	171	4236	172
4	6173	1969	4112	5935
4	6173	5807	1909	6011
4	6300	184	6210	5760
4	6300	3023	5603	6298
4	6300	3033	5760	5612
4	4493	5761	6210	4578
4	6300	183	6210	184
4	6300	6210	183	4578
4	4300	2136	6188	5797
4	4300	2184	6188	2136
4	2818	4298	4740	2060
4	4300	6188	2184	5499
4	4300	4291	2822	4298
4	508	2822	4300	2059
4	4300	2060	2818	508
4	4300	2818	4298	2822
4	5337	4653	3025	3035
4	6250	6251	2743	6247
4	6299	6251	6247	2608
4	6299	6251	6250	6247
4	6299	6250	6251	6293
4	6299	5026	6251	2608
4	4740	2817	4298	2818
4	4739	2817	4740	2813
4	4298	4300	2060	2818
4	4739	5369	4741	4299
4	5405	4465	2812	6278
4	4740	2060	5797	2061
4	5797	4300	2060	4298
4	4688	4692	4690	5801
4	4692	6048	2035	4693
4	4691	4511	4692	5644
4	3854	3849	4211	3843
4	5285	1760	5894	5753
4	1861	4213	1760	5894
4	3905	5285	5287	5286
4	5894	5285	5287	4213
4	3907	3909	3903	3910
4	5285	4106	5388	1708
4	5482	6068	6194	6110
4	6194	6056	2383	5716
4	5980	6237	5981	6202
4	6202	2791	6237	6317
4	4869	6202	5781	5602
4	6202	6237	2792	4870
4	6282	6202	5981	6317
4	6282	5602	5781	6202
4	6282	5602	2795	6283
CELL_TYPES		21741
11
11
11
11
11
11
11
11
11
11
11
11
11
11
11
11
11
11
11
11
11
11
11
11
11
11
11
11
11
11
11
11
11
11
11
11
11
11
11
11
11
11
11
11
11
11
11
11
11
11
11
11
11
11
11
11
11
11
11
11
11
11
11
11
11
11
11
11
11
11
11
11
11
11
11
11
11
11
11
11
11
11
11
11
11
11
11
11
11
11
11
11
11
11
11
11
11
11
11
11
11
11
11
11
11
11
11
11
11
11
11
11
11
11
11
11
11
11
11
11
11
11
11
11
11
11
11
11
11
11
11
11
11
11
11
11
11
11
11
11
11
11
11
11
11
11
11
11
11
11
11
11
11
11
11
11
11
11
11
11
11
11
11
11
11
11
11
11
11
11
11
11
11
11
11
11
11
11
11
11
11
11
11
11
11
11
11
11
11
11
11
11
11
11
11
11
11
11
11
11
11
11
11
11
11
11
11
11
11
11
11
11
11
11
11
11
11
11
11
11
11
11
11
11
11
11
11
11
11
11
11
11
11
11
11
11
11
11
11
11
11
11
11
11
11
11
11
11
11
11
11
11
11
11
11
11
11
11
11
11
11
11
11
11
11
11
11
11
11
11
11
11
11
11
11
11
11
11
11
11
11
11
11
11
11
11
11
11
11
11
11
11
11
11
11
11
11
11
11
11
11
11
11
11
11
11
11
11
11
11
11
11
11
11
11
11
11
11
11
11
11
11
11
11
11
11
11
11
11
11
11
11
11
11
11
11
11
11
11
11
11
11
11
11
11
11
11
11
11
11
11
11
11
11
11
11
11
11
11
11
11
11
11
11
11
11
11
11
11
11
11
11
11
11
11
11
11
11
11
11
11
11
11
11
11
11
11
11
11
11
11
11
11
11
11
11
11
11
11
11
11
11
11
11
11
11
11
11
11
11
11
11
11
11
11
11
11
11
11
11
11
11
11
11
11
11
11
11
11
11
11
11
11
11
11
11
11
11
11
11
11
11
11
11
11
11
11
11
11
11
11
11
11
11
11
11
11
11
11
11
11
11
11
11
11
11
11
11
11
11
11
11
11
11
11
11
11
11
11
11
11
11
11
11
11
11
11
11
11
11
11
11
11
11
11
11
11
11
11
11
11
11
11
11
11
11
11
11
11
11
11
11
11
11
11
11
11
11
11
11
11
11
11
11
11
11
11
11
11
11
11
11
11
11
11
11
11
11
11
11
11
11
11
11
11
11
11
11
11
11
11
11
11
11
11
11
11
11
11
11
11
11
11
11
11
11
11
11
11
11
11
11
11
11
11
11
11
11
11
11
11
11
11
11
11
11
11
11
11
11
11
11
11
11
11
11
11
11
11
11
11
11
11
11
11
11
11
11
11
11
11
11
11
11
11
11
11
11
11
11
11
11
11
11
11
11
11
11
11
11
11
11
11
11
11
11
11
11
11
11
11
11
11
11
11
11
11
11
11
11
11
11
11
11
11
11
11
11
11
11
11
11
11
11
11
11
11
11
11
11
11
11
11
11
11
11
11
11
11
11
11
11
11
11
11
11
11
11
11
11
11
11
11
11
11
11
11
11
11
11
11
11
11
11
11
11
11
11
11
11
11
11
11
11
11
11
11
11
11
11
11
11
11
11
11
11
11
11
11
11
11
11
11
11
11
11
11
11
11
11
11
11
11
11
11
11
11
11
11
11
11
11
11
11
11
11
11
11
11
11
11
11
11
11
11
11
11
11
11
11
11
11
11
11
11
11
11
11
11
11
11
11
11
11
11
11
11
11
11
11
11
11
11
11
11
11
11
11
11
11
11
11
11
11
11
11
11
11
11
11
11
11
11
11
11
11
11
11
11
11
11
11
11
11
11
11
11
11
11
11
11
11
11
11
11
11
11
11
11
11
11
11
11
11
11
11
11
11
11
11
11
11
11
11
11
11
11
11
11
11
11
11
11
11
11
11
11
11
11
11
11
11
11
11
11
11
11
11
11
11
11
11
11
11
11
11
11
11
11
11
11
11
11
11
11
11
11
11
11
11
11
11
11
11
11
11
11
11
11
11
11
11
11
11
11
11
11
11
11
11
11
11
11
11
11
11
11
11
11
11
11
11
11
11
11
11
11
11
11
11
11
11
11
11
11
11
11
11
11
11
11
11
11
11
11
11
11
11
11
11
11
11
11
11
11
11
11
11
11
11
11
11
11
11
11
11
11
11
11
11
11
11
11
11
11
11
11
11
11
11
11
11
11
11
11
11
11
11
11
11
11
11
11
11
11
11
11
11
11
11
11
11
11
11
11
11
11
11
11
11
11
11
11
11
11
11
11
11
11
11
11
11
11
11
11
11
11
11
11
11
11
11
11
11
11
11
11
11
11
11
11
11
11
11
11
11
11
11
11
11
11
11
11
11
11
11
11
11
11
11
11
11
11
11
11
11
11
11
11
11
11
11
11
11
11
11
11
11
11
11
11
11
11
11
11
11
11
11
11
11
11
11
11
11
11
11
11
11
11
11
11
11
11
11
11
11
11
11
11
11
11
11
11
11
11
11
11
11
11
11
11
11
11
11
11
11
11
11
11
11
11
11
11
11
11
11
11
11
11
11
11
11
11
11
11
11
11
11
11
11
11
11
11
11
11
11
11
11
11
11
11
11
11
11
11
11
11
11
11
11
11
11
11
11
11
11
11
11
11
11
11
11
11
11
11
11
11
11
11
11
11
11
11
11
11
11
11
11
11
11
11
11
11
11
11
11
11
11
11
11
11
11
11
11
11
11
11
11
11
11
11
11
11
11
11
11
11
11
11
11
11
11
11
11
11
11
11
11
11
11
11
11
11
11
11
11
11
11
11
11
11
11
11
11
11
11
11
11
11
11
11
11
11
11
11
11
11
11
11
11
11
11
11
11
11
11
11
11
11
11
11
11
11
11
11
11
11
11
11
11
11
11
11
11
11
11
11
11
11
11
11
11
11
11
11
11
11
11
11
11
11
11
11
11
11
11
11
11
10
10
10
10
10
10
10
10
10
10
10
10
10
10
10
10
10
10
10
10
10
10
10
10
10
10
10
10
10
10
10
10
10
10
10
10
10
10
10
10
10
10
10
10
10
10
10
10
10
10
10
10
10
10
10
10
10
10
10
10
10
10
10
10
10
10
10
10
10
10
10
10
10
10
10
10
10
10
10
10
10
10
10
10
10
10
10
10
10
10
10
10
10
10
10
10
10
10
10
10
10
10
10
10
10
10
10
10
10
10
10
10
10
10
10
10
10
10
10
10
10
10
10
10
10
10
10
10
10
10
10
10
10
10
10
10
10
10
10
10
10
10
10
10
10
10
10
10
10
10
10
10
10
10
10
10
10
10
10
10
10
10
10
10
10
10
10
10
10
10
10
10
10
10
10
10
10
10
10
10
10
10
10
10
10
10
10
10
10
10
10
10
10
10
10
10
10
10
10
10
10
10
10
10
10
10
10
10
10
10
10
10
10
10
10
10
10
10
10
10
10
10
10
10
10
10
10
10
10
10
10
10
10
10
10
10
10
10
10
10
10
10
10
10
10
10
10
10
10
10
10
10
10
10
10
10
10
10
10
10
10
10
10
10
10
10
10
10
10
10
10
10
10
10
10
10
10
10
10
10
10
10
10
10
10
10
10
10
10
10
10
10
10
10
10
10
10
10
10
10
10
10
10
10
10
10
10
10
10
10
10
10
10
10
10
10
10
10
10
10
10
10
10
10
10
10
10
10
10
10
10
10
10
10
10
10
10
10
10
10
10
10
10
10
10
10
10
10
10
10
10
10
10
10
10
10
10
10
10
10
10
10
10
10
10
10
10
10
10
10
10
10
10
10
10
10
10
10
10
10
10
10
10
10
10
10
10
10
10
10
10
10
10
10
10
10
10
10
10
10
10
10
10
10
10
10
10
10
10
10
10
10
10
10
10
10
10
10
10
10
10
10
10
10
10
10
10
10
10
10
10
10
10
10
10
10
10
10
10
10
10
10
10
10
10
10
10
10
10
10
10
10
10
10
10
10
10
10
10
10
10
10
10
10
10
10
10
10
10
10
10
10
10
10
10
10
10
10
10
10
10
10
10
10
10
10
10
10
10
10
10
10
10
10
10
10
10
10
10
10
10
10
10
10
10
10
10
10
10
10
10
10
10
10
10
10
10
10
10
10
10
10
10
10
10
10
10
10
10
10
10
10
10
10
10
10
10
10
10
10
10
10
10
10
10
10
10
10
10
10
10
10
10
10
10
10
10
10
10
10
10
10
10
10
10
10
10
10
10
10
10
10
10
10
10
10
10
10
10
10
10
10
10
10
10
10
10
10
10
10
10
10
10
10
10
10
10
10
10
10
10
10
10
10
10
10
10
10
10
10
10
10
10
10
10
10
10
10
10
10
10
10
10
10
10
10
10
10
10
10
10
10
10
10
10
10
10
10
10
10
10
10
10
10
10
10
10
10
10
10
10
10
10
10
10
10
10
10
10
10
10
10
10
10
10
10
10
10
10
10
10
10
10
10
10
10
10
10
10
10
10
10
10
10
10
10
10
10
10
10
10
10
10
10
10
10
10
10
10
10
10
10
10
10
10
10
10
10
10
10
10
10
10
10
10
10
10
10
10
10
10
10
10
10
10
10
10
10
10
10
10
10
10
10
10
10
10
10
10
10
10
10
10
10
10
10
10
10
10
10
10
10
10
10
10
10
10
10
10
10
10
10
10
10
10
10
10
10
10
10
10
10
10
10
10
10
10
10
10
10
10
10
10
10
10
10
10
10
10
10
10
10
10
10
10
10
10
10
10
10
10
10
10
10
10
10
10
10
10
10
10
10
10
10
10
10
10
10
10
10
10
10
10
10
10
10
10
10
10
10
10
10
10
10
10
10
10
10
10
10
10
10
10
10
10
10
10
10
10
10
10
10
10
10
10
10
10
10
10
10
10
10
10
10
10
10
10
10
10
10
10
10
10
10
10
10
10
10
10
10
10
10
10
10
10
10
10
10
10
10
10
10
10
10
10
10
10
10
10
10
10
10
10
10
10
10
10
10
10
10
10
10
10
10
10
10
10
10
10
10
10
10
10
10
10
10
10
10
10
10
10
10
10
10
10
10
10
10
10
10
10
10
10
10
10
10
10
10
10
10
10
10
10
10
10
10
10
10
10
10
10
10
10
10
10
10
10
10
10
10
10
10
10
10
10
10
10
10
10
10
10
10
10
10
10
10
10
10
10
10
10
10
10
10
10
10
10
10
10
10
10
10
10
10
10
10
10
10
10
10
10
10
10
10
10
10
10
10
10
10
10
10
10
10
10
10
10
10
10
10
10
10
10
10
10
10
10
10
10
10
10
10
10
10
10
10
10
10
10
10
10
10
10
10
10
10
10
10
10
10
10
10
10
10
10
10
10
10
10
10
10
10
10
10
10
10
10
10
10
10
10
10
10
10
10
10
10
10
10
10
10
10
10
10
10
10
10
10
10
10
10
10
10
10
10
10
10
10
10
10
10
10
10
10
10
10
10
10
10
10
10
10
10
10
10
10
10
10
10
10
10
10
10
10
10
10
10
10
10
10
10
10
10
10
10
10
10
10
10
10
10
10
10
10
10
10
10
10
10
10
10
10
10
10
10
10
10
10
10
10
10
10
10
10
10
10
10
10
10
10
10
10
10
10
10
10
10
10
10
10
10
10
10
10
10
10
10
10
10
10
10
10
10
10
10
10
10
10
10
10
10
10
10
10
10
10
10
10
10
10
10
10
10
10
10
10
10
10
10
10
10
10
10
10
10
10
10
10
10
10
10
10
10
10
10
10
10
10
10
10
10
10
10
10
10
10
10
10
10
10
10
10
10
10
10
10
10
10
10
10
10
10
10
10
10
10
10
10
10
10
10
10
10
10
10
10
10
10
10
10
10
10
10
10
10
10
10
10
10
10
10
10
10
10
10
10
10
10
10
10
10
10
10
10
10
10
10
10
10
10
10
10
10
10
10
10
10
10
10
10
10
10
10
10
10
10
10
10
10
10
10
10
10
10
10
10
10
10
10
10
10
10
10
10
10
10
10
10
10
10
10
10
10
10
10
10
10
10
10
10
10
10
10
10
10
10
10
10
10
10
10
10
10
10
10
10
10
10
10
10
10
10
10
10
10
10
10
10
10
10
10
10
10
10
10
10
10
10
10
10
10
10
10
10
10
10
10
10
10
10
10
10
10
10
10
10
10
10
10
10
10
10
10
10
10
10
10
10
10
10
10
10
10
10
10
10
10
10
10
10
10
10
10
10
10
10
10
10
10
10
10
10
10
10
10
10
10
10
10
10
10
10
10
10
10
10
10
10
10
10
10
10
10
10
10
10
10
10
10
10
10
10
10
10
10
10
10
10
10
10
10
10
10
10
10
10
10
10
10
10
10
10
10
10
10
10
10
10
10
10
10
10
10
10
10
10
10
10
10
10
10
10
10
10
10
10
10
10
10
10
10
10
10
10
10
10
10
10
10
10
10
10
10
10
10
10
10
10
10
10
10
10
10
10
10
10
10
10
10
10
10
10
10
10
10
10
10
10
10
10
10
10
10
10
10
10
10
10
10
10
10
10
10
10
10
10
10
10
10
10
10
10
10
10
10
10
10
10
10
10
10
10
10
10
10
10
10
10
10
10
10
10
10
10
10
10
10
10
10
10
10
10
10
10
10
10
10
10
10
10
10
10
10
10
10
10
10
10
10
10
10
10
10
10
10
10
10
10
10
10
10
10
10
10
10
10
10
10
10
10
10
10
10
10
10
10
10
10
10
10
10
10
10
10
10
10
10
10
10
10
10
10
10
10
10
10
10
10
10
10
10
10
10
10
10
10
10
10
10
10
10
10
10
10
10
10
10
10
10
10
10
10
10
10
10
10
10
10
10
10
10
10
10
10
10
10
10
10
10
10
10
10
10
10
10
10
10
10
10
10
10
10
10
10
10
10
10
10
10
10
10
10
10
10
10
10
10
10
10
10
10
10
10
10
10
10
10
10
10
10
10
10
10
10
10
10
10
10
10
10
10
10
10
10
10
10
10
10
10
10
10
10
10
10
10
10
10
10
10
10
10
10
10
10
10
10
10
10
10
10
10
10
10
10
10
10
10
10
10
10
10
10
10
10
10
10
10
10
10
10
10
10
10
10
10
10
10
10
10
10
10
10
10
10
10
10
10
10
10
10
10
10
10
10
10
10
10
10
10
10
10
10
10
10
10
10
10
10
10
10
10
10
10
10
10
10
10
10
10
10
10
10
10
10
10
10
10
10
10
10
10
10
10
10
10
10
10
10
10
10
10
10
10
10
10
10
10
10
10
10
10
10
10
10
10
10
10
10
10
10
10
10
10
10
10
10
10
10
10
10
10
10
10
10
10
10
10
10
10
10
10
10
10
10
10
10
10
10
10
10
10
10
10
10
10
10
10
10
10
10
10
10
10
10
10
10
10
10
10
10
10
10
10
10
10
10
10
10
10
10
10
10
10
10
10
10
10
10
10
10
10
10
10
10
10
10
10
10
10
10
10
10
10
10
10
10
10
10
10
10
10
10
10
10
10
10
10
10
10
10
10
10
10
10
10
10
10
10
10
10
10
10
10
10
10
10
10
10
10
10
10
10
10
10
10
10
10
10
10
10
10
10
10
10
10
10
10
10
10
10
10
10
10
10
10
10
10
10
10
10
10
10
10
10
10
10
10
10
10
10
10
10
10
10
10
10
10
10
10
10
10
10
10
10
10
10
10
10
10
10
10
10
10
10
10
10
10
10
10
10
10
10
10
10
10
10
10
10
10
10
10
10
10
10
10
10
10
10
10
10
10
10
10
10
10
10
10
10
10
10
10
10
10
10
10
10
10
10
10
10
10
10
10
10
10
10
10
10
10
10
10
10
10
10
10
10
10
10
10
10
10
10
10
10
10
10
10
10
10
10
10
10
10
10
10
10
10
10
10
10
10
10
10
10
10
10
10
10
10
10
10
10
10
10
10
10
10
10
10
10
10
10
10
10
10
10
10
10
10
10
10
10
10
10
10
10
10
10
10
10
10
10
10
10
10
10
10
10
10
10
10
10
10
10
10
10
10
10
10
10
10
10
10
10
10
10
10
10
10
10
10
10
10
10
10
10
10
10
10
10
10
10
10
10
10
10
10
10
10
10
10
10
10
10
10
10
10
10
10
10
10
10
10
10
10
10
10
10
10
10
10
10
10
10
10
10
10
10
10
10
10
10
10
10
10
10
10
10
10
10
10
10
10
10
10
10
10
10
10
10
10
10
10
10
10
10
10
10
10
10
10
10
10
10
10
10
10
10
10
10
10
10
10
10
10
10
10
10
10
10
10
10
10
10
10
10
10
10
10
10
10
10
10
10
10
10
10
10
10
10
10
10
10
10
10
10
10
10
10
10
10
10
10
10
10
10
10
10
10
10
10
10
10
10
10
10
10
10
10
10
10
10
10
10
10
10
10
10
10
10
10
10
10
10
10
10
10
10
10
10
10
10
10
10
10
10
10
10
10
10
10
10
10
10
10
10
10
10
10
10
10
10
10
10
10
10
10
10
10
10
10
10
10
10
10
10
10
10
10
10
10
10
10
10
10
10
10
10
10
10
10
10
10
10
10
10
10
10
10
10
10
10
10
10
10
10
10
10
10
10
10
10
10
10
10
10
10
10
10
10
10
10
10
10
10
10
10
10
10
10
10
10
10
10
10
10
10
10
10
10
10
10
10
10
10
10
10
10
10
10
10
10
10
10
10
10
10
10
10
10
10
10
10
10
10
10
10
10
10
10
10
10
10
10
10
10
10
10
10
10
10
10
10
10
10
10
10
10
10
10
10
10
10
10
10
10
10
10
10
10
10
10
10
10
10
10
10
10
10
10
10
10
10
10
10
10
10
10
10
10
10
10
10
10
10
10
10
10
10
10
10
10
10
10
10
10
10
10
10
10
10
10
10
10
10
10
10
10
10
10
10
10
10
10
10
10
10
10
10
10
10
10
10
10
10
10
10
10
10
10
10
10
10
10
10
10
10
10
10
10
10
10
10
10
10
10
10
10
10
10
10
10
10
10
10
10
10
10
10
10
10
10
10
10
10
10
10
10
10
10
10
10
10
10
10
10
10
10
10
10
10
10
10
10
10
10
10
10
10
10
10
10
10
10
10
10
10
10
10
10
10
10
10
10
10
10
10
10
10
10
10
10
10
10
10
10
10
10
10
10
10
10
10
10
10
10
10
10
10
10
10
10
10
10
10
10
10
10
10
10
10
10
10
10
10
10
10
10
10
10
10
10
10
10
10
10
10
10
10
10
10
10
10
10
10
10
10
10
10
10
10
10
10
10
10
10
10
10
10
10
10
10
10
10
10
10
10
10
10
10
10
10
10
10
10
10
10
10
10
10
10
10
10
10
10
10
10
10
10
10
10
10
10
10
10
10
10
10
10
10
10
10
10
10
10
10
10
10
10
10
10
10
10
10
10
10
10
10
10
10
10
10
10
10
10
10
10
10
10
10
10
10
10
10
10
10
10
10
10
10
10
10
10
10
10
10
10
10
10
10
10
10
10
10
10
10
10
10
10
10
10
10
10
10
10
10
10
10
10
10
10
10
10
10
10
10
10
10
10
10
10
10
10
10
10
10
10
10
10
10
10
10
10
10
10
10
10
10
10
10
10
10
10
10
10
10
10
10
10
10
10
10
10
10
10
10
10
10
10
10
10
10
10
10
10
10
10
10
10
10
10
10
10
10
10
10
10
10
10
10
10
10
10
10
10
10
10
10
10
10
10
10
10
10
10
10
10
10
10
10
10
10
10
10
10
10
10
10
10
10
10
10
10
10
10
10
10
10
10
10
10
10
10
10
10
10
10
10
10
10
10
10
10
10
10
10
10
10
10
10
10
10
10
10
10
10
10
10
10
10
10
10
10
10
10
10
10
10
10
10
10
10
10
10
10
10
10
10
10
10
10
10
10
10
10
10
10
10
10
10
10
10
10
10
10
10
10
10
10
10
10
10
10
10
10
10
10
10
10
10
10
10
10
10
10
10
10
10
10
10
10
10
10
10
10
10
10
10
10
10
10
10
10
10
10
10
10
10
10
10
10
10
10
10
10
10
10
10
10
10
10
10
10
10
10
10
10
10
10
10
10
10
10
10
10
10
10
10
10
10
10
10
10
10
10
10
10
10
10
10
10
10
10
10
10
10
10
10
10
10
10
10
10
10
10
10
10
10
10
10
10
10
10
10
10
10
10
10
10
10
10
10
10
10
10
10
10
10
10
10
10
10
10
10
10
10
10
10
10
10
10
10
10
10
10
10
10
10
10
10
10
10
10
10
10
10
10
10
10
10
10
10
10
10
10
10
10
10
10
10
10
10
10
10
10
10
10
10
10
10
10
10
10
10
10
10
10
10
10
10
10
10
10
10
10
10
10
10
10
10
10
10
10
10
10
10
10
10
10
10
10
10
10
10
10
10
10
10
10
10
10
10
10
10
10
10
10
10
10
10
10
10
10
10
10
10
10
10
10
10
10
10
10
10
10
10
10
10
10
10
10
10
10
10
10
10
10
10
10
10
10
10
10
10
10
10
10
10
10
10
10
10
10
10
10
10
10
10
10
10
10
10
10
10
10
10
10
10
10
10
10
10
10
10
10
10
10
10
10
10
10
10
10
10
10
10
10
10
10
10
10
10
10
10
10
10
10
10
10
10
10
10
10
10
10
10
10
10
10
10
10
10
10
10
10
10
10
10
10
10
10
10
10
10
10
10
10
10
10
10
10
10
10
10
10
10
10
10
10
10
10
10
10
10
10
10
10
10
10
10
10
10
10
10
10
10
10
10
10
10
10
10
10
10
10
10
10
10
10
10
10
10
10
10
10
10
10
10
10
10
10
10
10
10
10
10
10
10
10
10
10
10
10
10
10
10
10
10
10
10
10
10
10
10
10
10
10
10
10
10
10
10
10
10
10
10
10
10
10
10
10
10
10
10
10
10
10
10
10
10
10
10
10
10
10
10
10
10
10
10
10
10
10
10
10
10
10
10
10
10
10
10
10
10
10
10
10
10
10
10
10
10
10
10
10
10
10
10
10
10
10
10
10
10
10
10
10
10
10
10
10
10
10
10
10
10
10
10
10
10
10
10
10
10
10
10
10
10
10
10
10
10
10
10
10
10
10
10
10
10
10
10
10
10
10
10
10
10
10
10
10
10
10
10
10
10
10
10
10
10
10
10
10
10
10
10
10
10
10
10
10
10
10
10
10
10
10
10
10
10
10
10
10
10
10
10
10
10
10
10
10
10
10
10
10
10
10
10
10
10
10
10
10
10
10
10
10
10
10
10
10
10
10
10
10
10
10
10
10
10
10
10
10
10
10
10
10
10
10
10
10
10
10
10
10
10
10
10
10
10
10
10
10
10
10
10
10
10
10
10
10
10
10
10
10
10
10
10
10
10
10
10
10
10
10
10
10
10
10
10
10
10
10
10
10
10
10
10
10
10
10
10
10
10
10
10
10
10
10
10
10
10
10
10
10
10
10
10
10
10
10
10
10
10
10
10
10
10
10
10
10
10
10
10
10
10
10
10
10
10
10
10
10
10
10
10
10
10
10
10
10
10
10
10
10
10
10
10
10
10
10
10
10
10
10
10
10
10
10
10
10
10
10
10
10
10
10
10
10
10
10
10
10
10
10
10
10
10
10
10
10
10
10
10
10
10
10
10
10
10
10
10
10
10
10
10
10
10
10
10
10
10
10
10
10
10
10
10
10
10
10
10
10
10
10
10
10
10
10
10
10
10
10
10
10
10
10
10
10
10
10
10
10
10
10
10
10
10
10
10
10
10
10
10
10
10
10
10
10
10
10
10
10
10
10
10
10
10
10
10
10
10
10
10
10
10
10
10
10
10
10
10
10
10
10
10
10
10
10
10
10
10
10
10
10
10
10
10
10
10
10
10
10
10
10
10
10
10
10
10
10
10
10
10
10
10
10
10
10
10
10
10
10
10
10
10
10
10
10
10
10
10
10
10
10
10
10
10
10
10
10
10
10
10
10
10
10
10
10
10
10
10
10
10
10
10
10
10
10
10
10
10
10
10
10
10
10
10
10
10
10
10
10
10
10
10
10
10
10
10
10
10
10
10
10
10
10
10
10
10
10
10
10
10
10
10
10
10
10
10
10
10
10
10
10
10
10
10
10
10
10
10
10
10
10
10
10
10
10
10
10
10
10
10
10
10
10
10
10
10
10
10
10
10
10
10
10
10
10
10
10
10
10
10
10
10
10
10
10
10
10
10
10
10
10
10
10
10
10
10
10
10
10
10
10
10
10
10
10
10
10
10
10
10
10
10
10
10
10
10
10
10
10
10
10
10
10
10
10
10
10
10
10
10
10
10
10
10
10
10
10
10
10
10
10
10
10
10
10
10
10
10
10
10
10
10
10
10
10
10
10
10
10
10
10
10
10
10
10
10
10
10
10
10
10
10
10
10
10
10
10
10
10
10
10
10
10
10
10
10
10
10
10
10
10
10
10
10
10
10
10
10
10
10
10
10
10
10
10
10
10
10
10
10
10
10
10
10
10
10
10
10
10
10
10
10
10
10
10
10
10
10
10
10
10
10
10
10
10
10
10
10
10
10
10
10
10
10
10
10
10
10
10
10
10
10
10
10
10
10
10
10
10
10
10
10
10
10
10
10
10
10
10
10
10
10
10
10
10
10
10
10
10
10
10
10
10
10
10
10
10
10
10
10
10
10
10
10
10
10
10
10
10
10
10
10
10
10
10
10
10
10
10
10
10
10
10
10
10
10
10
10
10
10
10
10
10
10
10
10
10
10
10
10
10
10
10
10
10
10
10
10
10
10
10
10
10
10
10
10
10
10
10
10
10
10
10
10
10
10
10
10
10
10
10
10
10
10
10
10
10
10
10
10
10
10
10
10
10
10
10
10
10
10
10
10
10
10
10
10
10
10
10
10
10
10
10
10
10
10
10
10
10
10
10
10
10
10
10
10
10
10
10
10
10
10
10
10
10
10
10
10
10
10
10
10
10
10
10
10
10
10
10
10
10
10
10
10
10
10
10
10
10
10
10
10
10
10
10
10
10
10
10
10
10
10
10
10
10
10
10
10
10
10
10
10
10
10
10
10
10
10
10
10
10
10
10
10
10
10
10
10
10
10
10
10
10
10
10
10
10
10
10
10
10
10
10
10
10
10
10
10
10
10
10
10
10
10
10
10
10
10
10
10
10
10
10
10
10
10
10
10
10
10
10
10
10
10
10
10
10
10
10
10
10
10
10
10
10
10
10
10
10
10
10
10
10
10
10
10
10
10
10
10
10
10
10
10
10
10
10
10
10
10
10
10
10
10
10
10
10
10
10
10
10
10
10
10
10
10
10
10
10
10
10
10
10
10
10
10
10
10
10
10
10
10
10
10
10
10
10
10
10
10
10
10
10
10
10
10
10
10
10
10
10
10
10
10
10
10
10
10
10
10
10
10
10
10
10
10
10
10
10
10
10
10
10
10
10
10
10
10
10
10
10
10
10
10
10
10
10
10
10
10
10
10
10
10
10
10
10
10
10
10
10
10
10
10
10
10
10
10
10
10
10
10
10
10
10
10
10
10
10
10
10
10
10
10
10
10
10
10
10
10
10
10
10
10
10
10
10
10
10
10
10
10
10
10
10
10
10
10
10
10
10
10
10
10
10
10
10
10
10
10
10
10
10
10
10
10
10
10
10
10
10
10
10
10
10
10
10
10
10
10
10
10
10
10
10
10
10
10
10
10
10
10
10
10
10
10
10
10
10
10
10
10
10
10
10
10
10
10
10
10
10
10
10
10
10
10
10
10
10
10
10
10
10
10
10
10
10
10
10
10
10
10
10
10
10
10
10
10
10
10
10
10
10
10
10
10
10
10
10
10
10
10
10
10
10
10
10
10
10
10
10
10
10
10
10
10
10
10
10
10
10
10
10
10
10
10
10
10
10
10
10
10
10
10
10
10
10
10
10
10
10
10
10
10
10
10
10
10
10
10
10
10
10
10
10
10
10
10
10
10
10
10
10
10
10
10
10
10
10
10
10
10
10
10
10
10
10
10
10
10
10
10
10
10
10
10
10
10
10
10
10
10
10
10
10
10
10
10
10
10
10
10
10
10
10
10
10
10
10
10
10
10
10
10
10
10
10
10
10
10
10
10
10
10
10
10
10
10
10
10
10
10
10
10
10
10
10
10
10
10
10
10
10
10
10
10
10
10
10
10
10
10
10
10
10
10
10
10
10
10
10
10
10
10
10
10
10
10
10
10
10
10
10
10
10
10
10
10
10
10
10
10
10
10
10
10
10
10
10
10
10
10
10
10
10
10
10
10
10
10
10
10
10
10
10
10
10
10
10
10
10
10
10
10
10
10
10
10
10
10
10
10
10
10
10
10
10
10
10
10
10
10
10
10
10
10
10
10
10
10
10
10
10
10
10
10
10
10
10
10
10
10
10
10
10
10
10
10
10
10
10
10
10
10
10
10
10
10
10
10
10
10
10
10
10
10
10
10
10
10
10
10
10
10
10
10
10
10
10
10
10
10
10
10
10
10
10
10
10
10
10
10
10
10
10
10
10
10
10
10
10
10
10
10
10
10
10
10
10
10
10
10
10
10
10
10
10
10
10
10
10
10
10
10
10
10
10
10
10
10
10
10
10
10
10
10
10
10
10
10
10
10
10
10
10
10
10
10
10
10
10
10
10
10
10
10
10
10
10
10
10
10
10
10
10
10
10
10
10
10
10
10
10
10
10
10
10
10
10
10
10
10
10
10
10
10
10
10
10
10
10
10
10
10
10
10
10
10
10
10
10
10
10
10
10
10
10
10
10
10
10
10
10
10
10
10
10
10
10
10
10
10
10
10
10
10
10
10
10
10
10
10
10
10
10
10
10
10
10
10
10
10
10
10
10
10
10
10
10
10
10
10
10
10
10
10
10
10
10
10
10
10
10
10
10
10
10
10
10
10
10
10
10
10
10
10
10
10
10
10
10
10
10
10
10
10
10
10
10
10
10
10
10
10
10
10
10
10
10
10
10
10
10
10
10
10
10
10
10
10
10
10
10
10
10
10
10
10
10
10
10
10
10
10
10
10
10
10
10
10
10
10
10
10
10
10
10
10
10
10
10
10
10
10
10
10
10
10
10
10
10
10
10
10
10
10
10
10
10
10
10
10
10
10
10
10
10
10
10
10
10
10
10
10
10
10
10
10
10
10
10
10
10
10
10
10
10
10
10
10
10
10
10
10
10
10
10
10
10
10
10
10
10
10
10
10
10
10
10
10
10
10
10
10
10
10
10
10
10
10
10
10
10
10
10
10
10
10
10
10
10
10
10
10
10
10
10
10
10
10
10
10
10
10
10
10
10
10
10
10
10
10
10
10
10
10
10
10
10
10
10
10
10
10
10
10
10
10
10
10
10
10
10
10
10
10
10
10
10
10
10
10
10
10
10
10
10
10
10
10
10
10
10
10
10
10
10
10
10
10
10
10
10
10
10
10
10
10
10
10
10
10
10
10
10
10
10
10
10
10
10
10
10
10
10
10
10
10
10
10
10
10
10
10
10
10
10
10
10
10
10
10
10
10
10
10
10
10
10
10
10
10
10
10
10
10
10
10
10
10
10
10
10
10
10
10
10
10
10
10
10
10
10
10
10
10
10
10
10
10
10
10
10
10
10
10
10
10
10
10
10
10
10
10
10
10
10
10
10
10
10
10
10
10
10
10
10
10
10
10
10
10
10
10
10
10
10
10
10
10
10
10
10
10
10
10
10
10
10
10
10
10
10
10
10
10
10
10
10
10
10
10
10
10
10
10
10
10
10
10
10
10
10
10
10
10
10
10
10
10
10
10
10
10
10
10
10
10
10
10
10
10
10
10
10
10
10
10
10
10
10
10
10
10
10
10
10
10
10
10
10
10
10
10
10
10
10
10
10
10
10
10
10
10
10
10
10
10
10
10
10
10
10
10
10
10
10
10
10
10
10
10
10
10
10
10
10
10
10
10
10
10
10
10
10
10
10
10
10
10
10
10
10
10
10
10
10
10
10
10
10
10
10
10
10
10
10
10
10
10
10
10
10
10
10
10
10
10
10
10
10
10
10
10
10
10
10
10
10
10
10
10
10
10
10
10
10
10
10
10
10
10
10
10
10
10
10
10
10
10
10
10
10
10
10
10
10
10
10
10
10
10
10
10
10
10
10
10
10
10
10
10
10
10
10
10
10
10
10
10
10
10
10
10
10
10
10
10
10
10
10
10
10
10
10
10
10
10
10
10
10
10
10
10
10
10
10
10
10
10
10
10
10
10
10
10
10
10
10
10
10
10
10
10
10
10
10
10
10
10
10
10
10
10
10
10
10
10
10
10
10
10
10
10
10
10
10
10
10
10
10
10
10
10
10
10
10
10
10
10
10
10
10
10
10
10
10
10
10
10
10
10
10
10
10
10
10
10
10
10
10
10
10
10
10
10
10
10
10
10
10
10
10
10
10
10
10
10
10
10
10
10
10
10
10
10
10
10
10
10
10
10
10
10
10
10
10
10
10
10
10
10
10
10
10
10
10
10
10
10
10
10
10
10
10
10
10
10
10
10
10
10
10
10
10
10
10
10
10
10
10
10
10
10
10
10
10
10
10
10
10
10
10
10
10
10
10
10
10
10
10
10
10
10
10
10
10
10
10
10
10
10
10
10
10
10
10
10
10
10
10
10
10
10
10
10
10
10
10
10
10
10
10
10
10
10
10
10
10
10
10
10
10
10
10
10
10
10
10
10
10
10
10
10
10
10
10
10
10
10
10
10
10
10
10
10
10
10
10
10
10
10
10
10
10
10
10
10
10
10
10
10
10
10
10
10
10
10
10
10
10
10
10
10
10
10
10
10
10
10
10
10
10
10
10
10
10
10
10
10
10
10
10
10
10
10
10
10
10
10
10
10
10
10
10
10
10
10
10
10
10
10
10
10
10
10
10
10
10
10
10
10
10
10
10
10
10
10
10
10
10
10
10
10
10
10
10
10
10
10
10
10
10
10
10
10
10
10
10
10
10
10
10
10
10
10
10
10
10
10
10
10
10
10
10
10
10
10
10
10
10
10
10
10
10
10
10
10
10
10
10
10
10
10
10
10
10
10
10
10
10
10
10
10
10
10
10
10
10
10
10
10
10
10
10
10
10
10
10
10
10
10
10
10
10
10
10
10
10
10
10
10
10
10
10
10
10
10
10
10
10
10
10
10
10
10
10
10
10
10
10
10
10
10
10
10
10
10
10
10
10
10
10
10
10
10
10
10
10
10
10
10
10
10
10
10
10
10
10
10
10
10
10
10
10
10
10
10
10
10
10
10
10
10
10
10
10
10
10
10
10
10
10
10
10
10
10
10
10
10
10
10
10
10
10
10
10
10
10
10
10
10
10
10
10
10
10
10
10
10
10
10
10
10
10
10
10
10
10
10
10
10
10
10
10
10
10
10
10
10
10
10
10
10
10
10
10
10
10
10
10
10
10
10
10
10
10
10
10
10
10
10
10
10
10
10
10
10
10
10
10
10
10
10
10
10
10
10
10
10
10
10
10
10
10
10
10
10
10
10
10
10
10
10
10
10
10
10
10
10
10
10
10
10
10
10
10
10
10
10
10
10
10
10
10
10
10
10
10
10
10
10
10
10
10
10
10
10
10
10
10
10
10
10
10
10
10
10
10
10
10
10
10
10
10
10
10
10
10
10
10
10
10
10
10
10
10
10
10
10
10
10
10
10
10
10
10
10
10
10
10
10
10
10
10
10
10
10
10
10
10
10
10
10
10
10
10
10
10
10
10
10
10
10
10
10
10
10
10
10
10
10
10
10
10
10
10
10
10
10
10
10
10
10
10
10
10
10
10
10
10
10
10
10
10
10
10
10
10
10
10
10
10
10
10
10
10
10
10
10
10
10
10
10
10
10
10
10
10
10
10
10
10
10
10
10
10
10
10
10
10
10
10
10
10
10
10
10
10
10
10
10
10
10
10
10
10
10
10
10
10
10
10
10
10
10
10
10
10
10
10
10
10
10
10
10
10
10
10
10
10
10
10
10
10
10
10
10
10
10
10
10
10
10
10
10
10
10
10
10
10
10
10
10
10
10
10
10
10
10
10
10
10
10
10
10
10
10
10
10
10
10
10
10
10
10
10
10
10
10
10
10
10
10
10
10
10
10
10
10
10
10
10
10
10
10
10
10
10
10
10
10
10
10
10
10
10
10
10
10
10
10
10
10
10
10
10
10
10
10
10
10
10
10
10
10
10
10
10
10
10
10
10
10
10
10
10
10
10
10
10
10
10
10
10
10
10
10
10
10
10
10
10
10
10
10
10
10
10
10
10
10
10
10
10
10
10
10
10
10
10
10
10
10
10
10
10
10
10
10
10
10
10
10
10
10
10
10
10
10
10
10
10
10
10
10
10
10
10
10
10
10
10
10
10
10
10
10
10
10
10
10
10
10
10
10
10
10
10
10
10
10
10
10
10
10
10
10
10
10
10
10
10
10
10
10
10
10
10
10
10
10
10
10
10
10
10
10
10
10
10
10
10
10
10
10
10
10
10
10
10
10
10
10
10
10
10
10
10
10
10
10
10
10
10
10
10
10
10
10
10
10
10
10
10
10
10
10
10
10
10
10
10
10
10
10
10
10
10
10
10
10
10
10
10
10
10
10
10
10
10
10
10
10
10
10
10
10
10
10
10
10
10
10
10
10
10
10
10
10
10
10
10
10
10
10
10
10
10
10
10
10
10
10
10
10
10
10
10
10
10
10
10
10
10
10
10
10
10
10
10
10
10
10
10
10
10
10
10
10
10
10
10
10
10
10
10
10
10
10
10
10
10
10
10
10
10
10
10
10
10
10
10
10
10
10
10
10
10
10
10
10
10
10
10
10
10
10
10
10
10
10
10
10
10
10
10
10
10
10
10
10
10
10
10
10
10
10
10
10
10
10
10
10
10
10
10
10
10
10
10
10
10
10
10
10
10
10
10
10
10
10
10
10
10
10
10
10
10
10
10
10
10
10
10
10
10
10
10
10
10
10
10
10
10
10
10
10
10
10
10
10
10
10
10
10
10
10
10
10
10
10
10
10
10
10
10
10
10
10
10
10
10
10
10
10
10
10
10
10
10
10
10
10
10
10
10
10
10
10
10
10
10
10
10
10
10
10
10
10
10
10
10
10
10
10
10
10
10
10
10
10
10
10
10
10
10
10
10
10
10
10
10
10
10
10
10
10
10
10
10
10
10
10
10
10
10
10
10
10
10
10
10
10
10
10
10
10
10
10
10
10
10
10
10
10
10
10
10
10
10
10
10
10
10
10
10
10
10
10
10
10
10
10
10
10
10
10
10
10
10
10
10
10
10
10
10
10
10
10
10
10
10
10
10
10
10
10
10
10
10
10
10
10
10
10
10
10
10
10
10
10
10
10
10
10
10
10
10
10
10
10
10
10
10
10
10
10
10
10
10
10
10
10
10
10
10
10
10
10
10
10
10
10
10
10
10
10
10
10
10
10
10
10
10
10
10
10
10
10
10
10
10
10
10
10
10
10
10
10
10
10
10
10
10
10
10
10
10
10
10
10
10
10
10
10
10
10
10
10
10
10
10
10
10
10
10
10
10
10
10
10
10
10
10
10
10
10
10
10
10
10
10
10
10
10
10
10
10
10
10
10
10
10
10
10
10
10
10
10
10
10
10
10
10
10
10
10
10
10
10
10
10
10
10
10
10
10
10
10
10
10
10
10
10
10
10
10
10
10
10
10
10
10
10
10
10
10
10
10
10
10
10
10
10
10
10
10
10
10
10
10
10
10
10
10
10
10
10
10
10
10
10
10
10
10
10
10
10
10
10
10
10
10
10
10
10
10
10
10
10
10
10
10
10
10
10
10
10
10
10
10
10
10
10
10
10
10
10
10
10
10
10
10
10
10
10
10
10
10
10
10
10
10
10
10
10
10
10
10
10
10
10
10
10
10
10
10
10
10
10
10
10
10
10
10
10
10
10
10
10
10
10
10
10
10
10
10
10
10
10
10
10
10
10
10
10
10
10
10
10
10
10
10
10
10
10
10
10
10
10
10
10
10
10
10
10
10
10
10
10
10
10
10
10
10
10
10
10
10
10
10
10
10
10
10
10
10
10
10
10
10
10
10
10
10
10
10
10
10
10
10
10
10
10
10
10
10
10
10
10
10
10
10
10
10
10
10
10
10
10
10
10
10
10
10
10
10
10
10
10
10
10
10
10
10
10
10
10
10
10
10
10
10
10
10
10
10
10
10
10
10
10
10
10
10
10
10
10
10
10
10
10
10
10
10
10
10
10
10
10
10
10
10
10
10
10
10
10
10
10
10
10
10
10
10
10
10
10
10
10
10
10
10
10
10
10
10
10
10
10
10
10
10
10
10
10
10
10
10
10
10
10
10
10
10
10
10
10
10
10
10
10
10
10
10
10
10
10
10
10
10
10
10
10
10
10
10
10
10
10
10
10
10
10
10
10
10
10
10
10
10
10
10
10
10
10
10
10
10
10
10
10
10
10
10
10
10
10
10
10
10
10
10
10
10
10
10
10
10
10
10
10
10
10
10
10
10
10
10
10
10
10
10
10
10
10
10
10
10
10
10
10
10
10
10
10
10
10
10
10
10
10
10
10
10
10
10
10
10
10
10
10
10
10
10
10
10
10
10
10
10
10
10
10
10
10
10
10
10
10
10
10
10
10
10
10
10
10
10
10
10
10
10
10
10
10
10
10
10
10
10
10
10
10
10
10
10
10
10
10
10
10
10
10
10
10
10
10
10
10
10
10
10
10
10
10
10
10
10
10
10
10
10
10
10
10
10
10
10
10
10
10
10
10
10
10
10
10
10
10
10
10
10
10
10
10
10
10
10
10
10
10
10
10
10
10
10
10
10
10
10
10
10
10
10
10
10
10
10
10
10
10
10
10
10
10
10
10
10
10
10
10
10
10
10
10
10
10
10
10
10
10
10
10
10
10
10
10
10
10
10
10
10
10
10
10
10
10
10
10
10
10
10
10
10
10
10
10
10
10
10
10
10
10
10
10
10
10
10
10
10
10
10
10
10
10
10
10
10
10
10
10
10
10
10
10
10
10
10
10
10
10
10
10
10
10
10
10
10
10
10
10
10
10
10
10
10
10
10
10
10
10
10
10
10
10
10
10
10
10
10
10
10
10
10
10
10
10
10
10
10
10
10
10
10
10
10
10
10
10
10
10
10
10
10
10
10
10
10
10
10
10
10
10
10
10
10
10
10
10
10
10
10
10
10
10
10
10
10
10
10
10
10
10
10
10
10
10
10
10
10
10
10
10
10
10
10
10
10
10
10
10
10
10
10
10
10
10
10
10
10
10
10
10
10
10
10
10
10
10
10
10
10
10
10
10
10
10
10
10
10
10
10
10
10
10
10
10
10
10
10
10
10
10
10
10
10
10
10
10
10
10
10
10
10
10
10
10
10
10
10
10
10
10
10
10
10
10
10
10
10
10
10
10
10
10
10
10
10
10
10
10
10
10
10
10
10
10
10
10
10
10
10
10
10
10
10
10
10
10
10
10
10
10
10
10
10
10
10
10
10
10
10
10
10
10
10
10
10
10
10
10
10
10
10
10
10
10
10
10
10
10
10
10
10
10
10
10
10
10
10
10
10
10
10
10
10
10
10
10
10
10
10
10
10
10
10
10
10
10
10
10
10
10
10
10
10
10
10
10
10
10
10
10
10
10
10
10
10
10
10
10
10
10
10
10
10
10
10
10
10
10
10
10
10
10
10
10
10
10
10
10
10
10
10
10
10
10
10
10
10
10
10
10
10
10
10
10
10
10
10
10
10
10
10
10
10
10
10
10
10
10
10
10
10
10
10
10
10
10
10
10
10
10
10
10
10
10
10
10
10
10
10
10
10
10
10
10
10
10
10
10
10
10
10
10
10
10
10
10
10
10
10
10
10
10
10
10
10
10
10
10
10
10
10
10
10
10
10
10
10
10
10
10
10
10
10
10
10
10
10
10
10
10
10
10
10
10
10
10
10
10
10
10
10
10
10
10
10
10
10
10
10
10
10
10
10
10
10
10
10
10
10
10
10
10
10
10
10
10
10
10
10
10
10
10
10
10
10
10
10
10
10
10
10
10
10
10
10
10
10
10
10
10
10
10
10
10
10
10
10
10
10
10
10
10
10
10
10
10
10
10
10
10
10
10
10
10
10
10
10
10
10
10
10
10
10
10
10
10
10
10
10
10
10
10
10
10
10
10
10
10
10
10
10
10
10
10
10
10
10
10
10
10
10
10
10
10
10
10
10
10
10
10
10
10
10
10
10
10
10
10
10
10
10
10
10
10
10
10
10
10
10
10
10
10
10
10
10
10
10
10
10
10
10
10
10
10
10
10
10
10
10
10
10
10
10
10
10
10
10
10
10
10
10
10
10
10
10
10
10
10
10
10
10
10
10
10
10
10
10
10
10
10
10
10
10
10
10
10
10
10
10
10
10
10
10
10
10
10
10
10
10
10
10
10
10
10
10
10
10
10
10
10
10
10
10
10
10
10
10
10
10
10
10
10
10
10
10
10
10
10
10
10
10
10
10
10
10
10
10
10
10
10
10
10
10
10
10
10
10
10
10
10
10
10
10
10
10
10
10
10
10
10
10
10
10
10
10
10
10
10
10
10
10
10
10
10
10
10
10
10
10
10
10
10
10
10
10
10
10
10
10
10
10
10
10
10
10
10
10
10
10
10
10
10
10
10
10
10
10
10
10
10
10
10
10
10
10
10
10
10
10
10
10
10
10
10
10
10
10
10
10
10
10
10
10
10
10
10
10
10
10
10
10
10
10
10
10
10
10
10
10
10
10
10
10
10
10
10
10
10
10
10
10
10
10
10
10
10
10
10
10
10
10
10
10
10
10
10
10
10
10
10
10
10
10
10
10
10
10
10
10
10
10
10
10
10
10
10
10
10
10
10
10
10
10
10
10
10
10
10
10
10
10
10
10
10
10
10
10
10
10
10
10
10
10
10
10
10
10
10
10
10
10
10
10
10
10
10
10
10
10
10
10
10
10
10
10
10
10
10
10
10
10
10
10
10
10
10
10
10
10
10
10
10
10
10
10
10
10
10
10
10
10
10
10
10
10
10
10
10
10
10
10
10
10
10
10
10
10
10
10
10
10
10
10
10
10
10
10
10
10
10
10
10
10
10
10
10
10
10
10
10
10
10
10
10
10
10
10
10
10
10
10
10
10
10
10
10
10
10
10
10
10
10
10
10
10
10
10
10
10
10
10
10
10
10
10
10
10
10
10
10
10
10
10
10
10
10
10
10
10
10
10
10
10
10
10
10
10
10
10
10
10
10
10
10
10
10
10
10
10
10
10
10
10
10
10
10
10
10
10
10
10
10
10
10
10
10
10
10
10
10
10
10
10
10
10
10
10
10
10
10
10
10
10
10
10
10
10
10
10
10
10
10
10
10
10
10
10
10
10
10
10
10
10
10
10
10
10
10
10
10
10
10
10
10
10
10
10
10
10
10
10
10
10
10
10
10
10
10
10
10
10
10
10
10
10
10
10
10
10
10
10
10
10
10
10
10
10
10
10
10
10
10
10
10
10
10
10
10
10
10
10
10
10
10
10
10
10
10
10
10
10
10
10
10
10
10
10
10
10
10
10
10
10
10
10
10
10
10
10
10
10
10
10
10
10
10
10
10
10
10
10
10
10
10
10
10
10
10
10
10
10
10
10
10
10
10
10
10
10
10
10
10
10
10
10
10
10
10
10
10
10
10
10
10
10
10
10
10
10
10
10
10
10
10
10
10
10
10
10
10
10
10
10
10
10
10
10
10
10
10
10
10
10
10
10
10
10
10
10
10
10
10
10
10
10
10
10
10
10
10
10
10
10
10
10
10
10
10
10
10
10
10
10
10
10
10
10
10
10
10
10
10
10
10
10
10
10
10
10
10
10
10
10
10
10
10
10
10
10
10
10
10
10
10
10
10
10
10
10
10
10
10
10
10
10
10
10
10
10
10
10
10
10
10
10
10
10
10
10
10
10
10
10
10
10
10
10
10
10
10
10
10
10
10
10
10
10
10
10
10
10
10
10
10
10
10
10
10
10
10
10
10
10
10
10
10
10
10
10
10
10
10
10
10
10
10
10
10
10
10
10
10
10
10
10
10
10
10
10
10
10
10
10
10
10
10
10
10
10
10
10
10
10
10
10
10
10
10
10
10
10
10
10
10
10
10
10
10
10
10
10
10
10
10
10
10
10
10
10
10
10
10
10
10
10
10
10
10
10
10
10
10
10
10
10
10
10
10
10
10
10
10
10
10
10
10
10
10
10
10
10
10
10
10
10
10
10
10
10
10
10
10
10
10
10
10
10
10
10
10
10
10
10
10
10
10
10
10
10
10
10
10
10
10
10
10
10
10
10
10
10
10
10
10
10
10
10
10
10
10
10
10
10
10
10
10
10
10
10
10
10
10
10
10
10
10
10
10
10
10
10
10
10
10
10
10
10
10
10
10
10
10
10
10
10
10
10
10
10
10
10
10
10
10
10
10
10
10
10
10
10
10
10
10
10
10
10
10
10
10
10
10
10
10
10
10
10
10
10
10
10
10
10
10
10
10
10
10
10
10
10
10
10
10
10
10
10
10
10
10
10
10
10
10
10
10
10
10
10
10
10
10
10
10
10
10
10
10
10
10
10
10
10
10
10
10
10
10
10
10
10
10
10
10
10
10
10
10
10
10
10
10
10
10
10
10
10
10
10
10
10
10
10
10
10
10
10
10
10
10
10
10
10
10
10
10
10
10
10
10
10
10
10
10
10
10
10
10
10
10
10
10
10
10
10
10
10
10
10
10
10
10
10
10
10
10
10
10
10
10
10
10
10
10
10
10
10
10
10
10
10
10
10
10
10
10
10
10
10
10
10
10
10
10
10
10
10
10
10
10
10
10
10
10
10
10
10
10
10
10
10
10
10
10
10
10
10
10
10
10
10
10
10
10
10
10
10
10
10
10
10
10
10
10
10
10
10
10
10
10
10
10
10
10
10
10
10
10
10
10
10
10
10
10
10
10
10
10
10
10
10
10
10
10
10
10
10
10
10
10
10
10
10
10
10
10
10
10
10
10
10
10
10
10
10
10
10
10
10
10
10
10
10
10
10
10
10
10
10
10
10
10
10
10
10
10
10
10
10
10
10
10
10
10
10
10
10
10
10
10
10
10
10
10
10
10
10
10
10
10
10
10
10
10
10
10
10
10
10
10
10
10
10
10
10
10
10
10
10
10
10
10
10
10
10
10
10
10
10
10
10
10
10
10
10
10
10
10
10
10
10
10
10
10
10
10
10
10
10
10
10
10
10
10
10
10
10
10
10
10
10
10
10
10
10
10
10
10
10
10
10
10
10
10
10
10
10
10
10
10
10
10
10
10
10
10
10
10
10
10
10
10
10
10
10
10
10
10
10
10
10
10
10
10
10
10
10
10
10
10
10
10
10
10
10
10
10
10
10
10
10
10
10
10
10
10
10
10
10
10
10
10
10
10
10
10
10
10
10
10
10
10
10
10
10
10
10
10
10
10
10
10
10
10
10
10
10
10
10
10
10
10
10
10
10
10
10
10
10
10
10
10
10
10
10
10
10
10
10
10
10
10
10
10
10
10
10
10
10
10
10
10
10
10
10
10
10
10
10
10
10
10
10
10
10
10
10
10
10
10
10
10
10
10
10
10
10
10
10
10
10
10
10
10
10
10
10
10
10
10
10
10
10
10
10
10
10
10
10
10
10
10
10
10
10
10
10
10
10
10
10
10
10
10
10
10
10
10
10
10
10
10
10
10
10
10
10
10
10
10
10
10
10
10
10
10
10
10
10
10
10
10
10
10
10
10
10
10
10
10
10
10
10
10
10
10
10
10
10
10
10
10
10
10
10
10
10
10
10
10
10
10
10
10
10
10
10
10
10
10
10
10
10
10
10
10
10
10
10
10
10
10
10
10
10
10
10
10
10
10
10
10
10
10
10
10
10
10
10
10
10
10
10
10
10
10
10
10
10
10
10
10
10
10
10
10
10
10
10
10
10
10
10
10
10
10
10
10
10
10
10
10
10
10
10
10
10
10
10
10
10
10
10
10
10
10
10
10
10
10
10
10
10
10
10
10
10
10
10
10
10
10
10
10
10
10
10
10
10
10
10
10
10
10
10
10
10
10
10
10
10
10
10
10
10
10
10
10
10
10
10
10
10
10
10
10
10
10
10
10
10
10
10
10
10
10
10
10
10
10
10
10
10
10
10
10
10
10
10
10
10
10
10
10
10
10
10
10
10
10
10
10
10
10
10
10
10
10
10
10
10
10
10
10
10
10
10
10
10
10
10
10
10
10
10
10
10
10
10
10
10
10
10
10
10
10
10
10
10
10
10
10
10
10
10
10
10
10
10
10
10
10
10
10
10
10
10
10
10
10
10
10
10
10
10
10
10
10
10
10
10
10
10
10
10
10
10
10
10
10
10
10
10
10
10
10
10
10
10
10
10
10
10
10
10
10
10
10
10
10
10
10
10
10
10
10
10
10
10
10
10
10
10
10
10
10
10
10
10
10
10
10
10
10
10
10
10
10
10
10
10
10
10
10
10
10
10
10
10
10
10
10
10
10
10
10
10
10
10
10
10
10
10
10
10
10
10
10
10
10
10
10
10
10
10
10
10
10
10
10
10
10
10
10
10
10
10
10
10
10
10
10
10
10
10
10
10
10
10
10
10
10
10
10
10
10
10
10
10
10
10
10
10
10
10
10
10
10
10
10
10
10
10
10
10
10
10
10
10
10
10
10
10
10
10
10
10
10
10
10
10
10
10
10
10
10
10
10
10
10
10
10
10
10
10
10
10
10
10
10
10
10
10
10
10
10
10
10
10
10
10
10
10
10
10
10
10
10
10
10
10
10
10
10
10
10
10
10
10
10
10
10
10
10
10
10
10
10
10
10
10
10
10
10
10
10
10
10
10
10
10
10
10
10
10
10
10
10
10
10
10
10
10
10
10
10
10
10
10
10
10
10
10
10
10
10
10
10
10
10
10
10
10
10
10
10
10
10
10
10
10
10
10
10
10
10
10
10
10
10
10
10
10
10
10
10
10
10
10
10
10
10
10
10
10
10
10
10
10
10
10
10
10
10
10
10
10
10
10
10
10
10
10
10
10
10
10
10
10
10
10
10
10
10
10
10
10
10
10
10
10
10
10
10
10
10
10
10
10
10
10
10
10
10
10
10
10
10
10
10
10
10
10
10
10
10
10
10
10
10
10
10
10
10
10
10
10
10
10
10
10
10
10
10
10
10
10
10
10
10
10
10
10
10
10
10
10
10
10
10
10
10
10
10
10
10
10
10
10
10
10
10
10
10
10
10
10
10
10
10
10
10
10
10
10
10
10
10
10
10
10
10
10
10
10
10
10
10
10
10
10
10
10
10
10
10
10
10
10
10
10
10
10
10
10
10
10
10
10
10
10
10
10
10
10
10
10
10
10
10
10
10
10
10
10
10
10
10
10
10
10
10
10
10
10
10
10
10
10
10
10
10
10
10
10
10
10
10
10
10
10
10
10
10
10
10
10
10
10
10
10
10
10
10
10
10
10
10
10
10
10
10
10
10
10
10
10
10
10
10
10
10
10
10
10
10
10
10
10
10
10
10
10
10
10
10
10
10
10
10
10
10
10
10
10
10
10
10
10
10
10
10
10
10
10
10
10
10
10
10
10
10
10
10
10
10
10
10
10
10
10
10
10
10
10
10
10
10
10
10
10
10
10
10
10
10
10
10
10
10
10
10
10
10
10
10
10
10
10
10
10
10
10
10
10
10
10
10
10
10
10
10
10
10
10
10
10
10
10
10
10
10
10
10
10
10
10
10
10
10
10
10
10
10
10
10
10
10
10
10
10
10
10
10
10
10
10
10
10
10
10
10
10
10
10
10
10
10
10
10
10
10
10
10
10
10
10
10
10
10
10
10
10
10
10
10
10
10
10
10
10
10
10
10
10
10
10
10
10
10
10
10
10
10
10
10
10
10
10
10
10
10
10
10
10
10
10
10
10
10
10
10
10
10
10
10
10
10
10
10
10
10
10
10
10
10
10
10
10
10
10
10
10
10
10
10
10
10
10
10
10
10
10
10
10
10
10
10
10
10
10
10
10
10
10
10
10
10
10
10
10
10
10
10
10
10
10
10
10
10
10
10
10
10
10
10
10
10
10
10
10
10
10
10
10
10
10
10
10
10
10
10
10
10
10
10
10
10
10
10
10
10
10
10
10
10
10
10
10
10
10
10
10
10
10
10
10
10
10
10
10
10
10
10
10
10
10
10
10
10
10
10
10
10
10
10
10
10
10
10
10
10
10
10
10
10
10
10
10
10
10
10
10
10
10
10
10
10
10
10
10
10
10
10
10
10
10
10
10
10
10
10
10
10
10
10
10
10
10
10
10
10
10
10
10
10
10
10
10
10
10
10
10
10
10
10
10
10
10
10
10
10
10
10
10
10
10
10
10
10
10
10
10
10
10
10
10
10
10
10
10
10
10
10
10
10
10
10
10
10
10
10
10
10
10
10
10
10
10
10
10
10
10
10
10
10
10
10
10
10
10
10
10
10
10
10
10
10
10
10
10
10
10
10
10
10
10
10
10
10
10
10
10
10
10
10
10
10
10
10
10
10
10
10
10
10
10
10
10
10
10
10
10
10
10
10
10
10
10
10
10
10
10
10
10
10
10
10
10
10
10
10
10
10
10
10
10
10
10
10
10
10
10
10
10
10
10
10
10
10
10
10
10
10
10
10
10
10
10
10
10
10
10
10
10
10
10
10
10
10
10
10
10
10
10
10
10
10
10
10
10
10
10
10
10
10
10
10
10
10
10
10
10
10
10
10
10
10
10
10
10
10
10
10
10
10
10
10
10
10
10
10
10
10
10
10
10
10
10
10
10
10
10
10
10
10
10
10
10
10
10
10
10
10
10
10
10
10
10
10
10
10
10
10
10
10
10
10
10
10
10
10
10
10
10
10
10
10
10
10
10
10
10
10
10
10
10
10
10
10
10
10
10
10
10
10
10
10
10
10
10
10
10
10
10
10
10
10
10
10
10
10
10
10
10
10
10
10
10
10
10
10
10
10
10
10
10
10
10
10
10
10
10
10
10
10
10
10
10
10
10
10
10
10
10
10
10
10
10
10
10
10
10
10
10
10
10
10
10
10
10
10
10
10
10
10
10
10
10
10
10
10
10
10
10
10
10
10
10
10
10
10
10
10
10
10
10
10
10
10
10
10
10
10
10
10
10
10
10
10
10
10
10
10
10
10
10
10
10
10
10
10
10
10
10
10
10
10
10
10
10
10
10
10
10
10
10
10
10
10
10
10
10
10
10
10
10
10
10
10
10
10
10
10
10
10
10
10
10
10
10
10
10
10
10
10
10
10
10
10
10
10
10
10
10
10
10
10
10
10
10
10
10
10
10
10
10
10
10
10
10
10
10
10
10
10
10
10
10
10
10
10
10
10
10
10
10
10
10
10
10
10
10
10
10
10
10
10
10
10
10
10
10
10
10
10
10
10
10
10
10
10
10
10
10
10
10
10
10
10
10
10
10
10
10
10
10
10
10
10
10
10
10
10
10
10
10
10
10
10
10
10
10
10
10
10
10
10
10
10
10
10
10
10
10
10
10
10
10
10
10
10
10
10
10
10
10
10
10
10
10
10
10
10
10
10
10
10
10
10
10
10
10
10
10
10
10
10
10
10
10
10
10
10
10
10
10
10
10
10
10
10
10
10
10
10
10
10
10
10
10
10
10
10
10
10
10
10
10
10
10
10
10
10
10
10
10
10
10
10
10
10
10
10
10
10
10
10
10
10
10
10
10
10
10
10
10
10
10
10
10
10
10
10
10
10
10
10
10
10
10
10
10
10
10
10
10
10
10
10
10
10
10
10
10
10
10
10
10
10
10
10
10
10
10
10
10
10
10
10
10
10
10
10
10
10
10
10
10
10
10
10
10
10
10
10
10
10
10
10
10
10
10
10
10
10
10
10
10
10
10
10
10
10
10
10
10
10
10
10
10
10
10
10
10
10
10
10
10
10
10
10
10
10
10
10
10
10
10
10
10
10
10
10
10
10
10
10
10
10
10
10
10
10
10
10
10
10
10
10
10
10
10
10
10
10
10
10
10
10
10
10
10
10
10
10
10
10
10
10
10
10
10
10
10
10
10
10
10
10
10
10
10
10
10
10
10
10
10
10
10
10
10
10
10
10
10
10
10
10
10
10
10
10
10
10
10
10
10
10
10
10
10
10
10
10
10
10
10
10
10
10
10
10
10
10
10
10
10
10
10
10
10
10
10
10
10
10
10
10
10
10
10
10
10
10
10
10
10
10
10
10
10
10
10
10
10
10
10
10
10
10
10
10
10
10
10
10
10
10
10
10
10
10
10
10
10
10
10
10
10
10
10
10
10
10
10
10
10
10
10
10
10
10
10
10
10
10
10
10
10
10
10
10
10
10
10
10
10
10
10
10
10
10
10
10
10
10
10
10
10
10
10
10
10
10
10
10
10
10
10
10
10
10
10
10
10
10
10
10
10
10
10
10
10
10
10
10
10
10
10
10
10
10
10
10
10
10
10
10
10
10
10
10
10
10
10
10
10
10
10
10
10
10
10
10
10
10
10
10
10
10
10
10
10
10
10
10
10
10
10
10
10
10
10
10
10
10
10
10
10
10
10
10
10
10
10
10
10
10
10
10
10
10
10
10
10
10
10
10
10
10
10
10
10
10
10
10
10
10
10
10
10
10
10
10
10
10
10
10
10
10
10
10
10
10
10
10
10
10
10
10
10
10
10
10
10
10
10
10
10
10
10
10
10
10
10
10
10
10
10
10
10
10
10
10
10
10
10
10
10
10
10
10
10
10
10
10
10
10
10
10
10
10
10
10
10
10
10
10
10
10
10
10
10
10
10
10
10
10
10
10
10
10
10
10
10
10
10
10
10
10
10
10
10
10
10
10
10
10
10
10
10
10
10
10
10
10
10
10
10
10
10
10
10
10
10
10
10
10
10
10
10
10
10
10
10
10
10
10
10
10
10
10
10
10
10
10
10
10
10
10
10
10
10
10
10
10
10
10
10
10
10
10
10
10
10
10
10
10
10
10
10
10
10
10
10
10
10
10
10
10
10
10
10
10
10
10
10
10
10
10
10
10
10
10
10
10
10
10
10
10
10
10
10
10
10
10
10
10
10
10
10
10
10
10
10
10
10
10
10
10
10
10
10
10
10
10
10
10
10
10
10
10
10
10
10
10
10
10
10
10
10
10
10
10
10
10
10
10
10
10
10
10
10
10
10
10
10
10
10
10
10
10
10
10
10
10
10
10
10
10
10
10
10
10
10
10
10
10
10
10
10
10
10
10
10
10
10
10
10
10
10
10
10
10
10
10
10
10
10
10
10
10
10
10
10
10
10
10
10
10
10
10
10
10
10
10
10
10
10
10
10
10
10
10
10
10
10
10
10
10
10
10
10
10
10
10
10
10
10
10
10
10
10
10
10
10
10
10
10
10
10
10
10
10
10
10
10
10
10
10
10
10
10
10
10
10
10
10
10
10
10
10
10
10
10
10
10
10
10
10
10
10
10
10
10
10
10
10
10
10
10
10
10
10
10
10
10
10
10
10
10
10
10
10
10
10
10
10
10
10
10
10
10
10
10
10
10
10
10
10
10
10
10
10
10
10
10
10
10
10
10
10
10
10
10
10
10
10
10
10
10
10
10
10
10
10
10
10
10
10
10
10
10
10
10
10
10
10
10
10
10
10
10
10
10
10
10
10
10
10
10
10
10
10
10
10
10
10
10
10
10
10
10
10
10
10
10
10
10
10
10
10
10
10
10
10
10
10
10
10
10
10
10
10
10
10
10
10
10
10
10
10
10
10
10
10
10
10
10
10
10
10
10
10
10
10
10
10
10
10
10
10
10
10
10
10
10
10
10
10
10
10
10
10
10
10
10
10
10
10
10
10
10
10
10
10
10
10
10
10
10
10
10
10
10
10
10
10
10
10
10
10
10
10
10
10
10
10
10
10
10
10
10
10
10
10
10
10
10
10
10
10
10
10
10
10
10
10
10
10
10
10
10
10
10
10
10
10
10
10
10
10
10
10
10
10
10
10
10
10
10
10
10
10
10
10
10
10
10
10
10
10
10
10
10
10
10
10
10
10
10
10
10
10
10
10
10
10
10
10
10
10
10
10
10
10
10
10
10
10
10
10
10
10
10
10
10
10
10
10
10
10
10
10
10
10
10
10
10
10
10
10
10
10
10
10
10
10
10
10
10
10
10
10
10
10
10
10
10
10
10
10
10
10
10
10
10
10
10
10
10
10
10
10
10
10
10
10
10
10
10
10
10
10
10
10
10
10
10
10
10
10
10
10
10
10
10
10
10
10
10
10
10
10
10
10
10
10
10
10
10
10
10
10
10
10
10
10
10
10
10
10
10
10
10
10
10
10
10
10
10
10
10
10
10
10
10
10
10
10
10
10
10
10
10
10
10
10
10
10
10
10
10
10
10
10
10
10
10
10
10
10
10
10
10
10
10
10
10
10
10
10
10
10
10
10
10
10
10
10
10
10
10
10
10
10
10
10
10
10
10
10
10
10
10
10
10
10
10
10
10
10
10
10
10
10
10
10
10
10
10
10
10
10
10
10
10
10
10
10
10
10
10
10
10
10
10
10
10
10
10
10
10
10
10
10
10
10
10
10
10
10
10
10
10
10
10
10
10
10
10
10
10
10
10
10
10
10
10
10
10
10
10
10
10
10
10
10
10
10
10
10
10
10
10
10
10
10
10
10
10
10
10
10
10
10
10
10
10
10
10
10
10
10
10
10
10
10
10
10
10
10
10
10
10
10
10
10
10
10
10
10
10
10
10
10
10
10
10
10
10
10
10
10
10
10
10
10
10
10
10
10
10
10
10
10
10
10
10
10
10
10
10
10
10
10
10
10
10
10
10
10
10
10
10
10
10
10
10
10
10
10
10
10
10
10
10
10
10
10
10
10
10
10
10
10
10
10
10
10
10
10
10
10
10
10
10
10
10
10
10
10
10
10
10
10
10
10
10
10
10
10
10
10
10
10
10
10
10
10
10
10
10
10
10
10
10
10
10
10
10
10
10
10
10
10
10
10
10
10
10
10
10
10
10
10
10
10
10
10
10
10
10
10
10
10
10
10
10
10
10
10
10
10
10
10
10
10
10
10
10
10
10
10
10
10
10
10
10
10
10
10
10
10
10
10
10
10
10
10
10
10
10
10
10
10
10
10
10
10
10
10
10
10
10
10
10
10
10
10
10
10
10
10
10
10
10
10
10
10
10
10
10
10
10
10
10
10
10
10
10
10
10
10
10
10
10
10
10
10
10
10
10
10
10
10
10
10
10
10
10
10
10
10
10
10
10
10
10
10
10
10
10
10
10
10
10
10
10
10
10
10
10
10
10
10
10
10
10
10
10
10
10
10
10
10
10
10
10
10
10
10
10
10
10
10
10
10
10
10
10
10
10
10
10
10
10
10
10
10
10
10
10
10
10
10
10
10
10
10
10
10
10
10
10
10
10
10
10
10
10
10
10
10
10
10
10
10
10
10
10
10
10
10
10
10
10
10
10
10
10
10
10
10
10
10
10
10
10
10
10
10
10
10
10
10
10
10
10
10
10
10
10
10
10
10
10
10
10
10
10
10
10
10
10
10
10
10
10
10
10
10
10
10
10
10
10
10
10
10
10
10
10
10
10
10
10
10
10
10
10
10
10
10
10
10
10
10
10
10
10
10
10
10
10
10
10
10
10
10
10
10
10
10
10
10
10
10
10
10
10
10
10
10
10
10
10
10
10
10
10
10
10
10
10
10
10
10
10
10
10
10
10
10
10
10
10
10
10
10
10
10
10
10
10
10
10
10
10
10
10
10
10
10
10
10
10
10
10
10
10
10
10
10
10
10
10
10
10
10
10
10
10
10
10
10
10
10
10
10
10
10
10
10
10
10
10
10
10
10
10
10
10
10
10
10
10
10
10
10
10
10
10
10
10
10
10
10
10
10
10
10
10
10
10
10
10
10
10
10
10
10
10
10
10
10
10
10
10
10
10
10
10
10
10
10
10
10
10
10
10
10
10
10
10
10
10
10
10
10
10
10
10
10
10
10
10
10
10
10
10
10
10
10
10
10
10
10
10
10
10
10
10
10
10
10
10
10
10
10
10
10
10
10
10
10
10
10
10
10
10
10
10
10
10
10
10
10
10
10
10
10
10
10
10
10
10
10
10
10
10
10
10
10
10
10
10
10
10
10
10
10
10
10
10
10
10
10
10
10
10
10
10
10
10
10
10
10
10
10
10
10
10
10
10
10
10
10
10
10
10
10
10
10
10
10
10
10
10
10
10
10
10
10
10
10
10
10
10
10
10
10
10
10
10
10
10
10
10
10
10
10
10
10
10
10
10
10
10
10
10
10
10
10
10
10
10
10
10
10
10
10
10
10
10
10
10
10
10
10
10
10
10
10
10
10
10
10
10
10
10
10
10
10
10
10
10
10
10
10
10
10
10
10
10
10
10
10
10
10
10
10
10
10
10
10
10
10
10
10
10
10
10
10
10
10
10
10
10
10
10
10
10
10
10
10
10
10
10
10
10
10
10
10
10
10
10
10
10
10
10
10
10
10
10
10
10
10
10
10
10
10
10
10
10
10
10
10
10
10
10
10
10
10
10
10
10
10
10
10
10
10
10
10
10
10
10
10
10
10
10
10
10
10
10
10
10
10
10
10
10
10
10
10
10
10
10
10
10
10
10
10
10
10
10
10
10
10
10
10
10
10
10
10
10
10
10
10
10
10
10
10
10
10
10
10
10
10
10
10
10
10
10
10
10
10
10
10
10
10
10
10
10
10
10
10
10
10
10
10
10
10
10
10
10
10
10
10
10
10
10
10
10
10
10
10
10
10
10
10
10
10
10
10
10
10
10
10
10
10
10
10
10
10
10
10
10
10
10
10
10
10
10
10
10
10
10
10
10
10
10
10
10
10
10
10
10
10
10
10
10
10
10
10
10
10
10
10
10
10
10
10
10
10
10
10
10
10
10
10
10
10
10
10
10
10
10
10
10
10
10
10
10
10
10
10
10
10
10
10
10
10
10
10
10
10
10
10
10
10
10
10
10
10
10
10
10
10
10
10
10
10
10
10
10
10
10
10
10
10
10
10
10
10
10
10
10
10
10
10
10
10
10
10
10
10
10
10
10
10
10
10
10
10
10
10
10
10
10
10
10
10
10
10
10
10
10
10
10
10
10
10
10
10
10
10
10
10
10
10
10
10
10
10
10
10
10
10
10
10
10
10
10
10
10
10
10
10
10
10
10
10
10
10
10
10
10
10
10
10
10
10
10
10
10
10
10
10
10
10
10
10
10
10
10
10
10
10
10
10
10
10
10
10
10
10
10
10
10
10
10
10
10
10
10
10
10
10
10
10
10
10
10
10
10
10
10
10
10
10
10
10
10
10
10
10
10
10
10
10
10
10
10
10
10
10
10
10
10
10
10
10
10
10
10
10
10
10
10
10
10
10
10
10
10
10
10
10
10
10
10
10
10
10
10
10
10
10
10
10
10
10
10
10
10
10
10
10
10
10
10
10
10
10
10
10
10
10
10
10
10
10
10
10
10
10
10
10
10
10
10
10
10
10
10
10
10
10
10
10
10
10
10
10
10
10
10
10
10
10
10
10
10
10
10
10
10
10
10
10
10
10
10
10
10
10
10
10
10
10
10
10
10
10
10
10
10
10
10
10
10
10
10
10
10
10
10
10
10
10
10
10
10
10
10
10
10
10
10
10
10
10
10
10
10
10
10
10
10
10
10
10
10
10
10
10
10
10
10
10
10
10
10
10
10
10
10
10
10
10
10
10
10
10
10
10
10
10
10
10
10
10
10
10
10
10
10
10
10
10
10
10
10
10
10
10
10
10
10
10
10
10
10
10
10
10
10
10
10
10
10
10
10
10
10
10
10
10
10
10
10
10
10
10
10
10
10
10
10
10
10
10
10
10
10
10
10
10
10
10
10
10
10
10
10
10
10
10
10
10
10
10
10
10
10
10
10
10
10
10
10
10
10
10
10
10
10
10
10
10
10
10
10
10
10
10
10
10
10
10
10
10
10
10
10
10
10
10
10
10
10
10
10
10
10
10
10
10
10
10
10
10
10
10
10
10
10
10
10
10
10
10
10
10
10
10
10
10
10
10
10
10
10
10
10
10
10
10
10
10
10
10
10
10
10
10
10
10
10
10
10
10
10
10
10
10
10
10
10
10
10
10
10
10
10
10
10
10
10
10
10
10
10
10
10
10
10
10
10
10
10
10
10
10
10
10
10
10
10
10
10
10
10
10
10
10
10
10
10
10
10
10
10
10
10
10
10
10
10
10
10
10
10
10
10
10
10
10
10
10
10
10
10
10
10
10
10
10
10
10
10
10
10
10
10
10
10
10
10
10
10
10
10
10
10
10
10
10
10
10
10
10
10
10
10
10
10
10
10
10
10
10
10
10
10
10
10
10
10
10
10
10
10
10
10
10
10
10
10
10
10
10
10
10
10
10
10
10
10
10
10
10
10
10
10
10
10
10
10
10
10
10
10
10
10
10
10
10
10
10
10
10
10
10
10
10
10
10
10
10
10
10
10
10
10
10
10
10
10
10
10
10
10
10
10
10
10
10
10
10
10
10
10
10
10
10
10
10
10
10
10
10
10
10
10
10
10
10
10
10
10
10
10
10
10
10
10
10
10
10
10
10
10
10
10
10
10
10
10
10
10
10
10
10
10
10
10
10
10
10
10
10
10
10
10
10
10
10
10
10
10
10
10
10
10
10
10
10
10
10
10
10
10
10
10
10
10
10
10
10
10
10
10
10
10
10
10
10
10
10
10
10
10
10
10
10
10
10
10
10
10
10
10
10
10
10
10
10
10
10
10
10
10
10
10
10
10
10
10
10
10
10
10
10
10
10
10
10
10
10
10
10
10
10
10
10
10
10
10
10
10
10
10
10
10
10
10
10
10
10
10
10
10
10
10
10
10
10
10
10
10
10
10
10
10
10
10
10
10
10
10
10
10
10
10
10
10
10
10
10
10
10
10
10
10
10
10
10
10
10
10
10
10
10
10
10
10
10
10
10
10
10
10
10
10
10
10
10
10
10
10
10
10
10
10
10
10
10
10
10
10
10
10
10
10
10
10
10
10
10
10
10
10
10
10
10
10
10
10
10
10
10
10
10
10
10
10
10
10
10
10
10
10
10
10
10
10
10
10
10
10
10
10
10
10
10
10
10
10
10
10
10
10
10
10
10
10
10
10
10
10
10
10
10
10
10
10
10
10
10
10
10
10
10
10
10
10
10
10
10
10
10
10
10
10
10
10
10
10
10
10
10
10
10
10
10
10
10
10
10
10
10
10
10
10
10
10
10
10
10
10
10
10
10
10
10
10
10
10
10
10
10
10
10
10
10
10
10
10
10
10
10
10
10
10
10
10
10
10
10
10
10
10
10
10
10
10
10
10
10
10
10
10
10
10
10
10
10
10
10
10
10
10
10
10
10
10
10
10
10
10
10
10
10
10
10
10
10
10
10
10
10
10
10
10
10
10
10
10
10
10
10
10
10
10
10
10
10
10
10
10
10
10
10
10
10
10
10
10
10
10
10
10
10
10
10
10
10
10
10
10
10
10
10
10
10
10
10
10
10
10
10
10
10
10
10
10
10
10
10
10
10
10
10
10
10
10
10
10
10
10
10
10
10
10
10
10
10
10
10
10
10
10
10
10
10
10
10
10
10
10
10
10
10
10
10
10
10
10
10
10
10
10
10
10
10
10
10
10
10
10
10
10
10
10
10
10
10
10
10
10
10
10
10
10
10
10
10
10
10
10
10
10
10
10
10
10
10
10
10
10
10
10
10
10
10
10
10
10
10
10
10
10
10
10
10
10
10
10
10
10
10
10
10
10
10
10
10
10
10
10
10
10
10
10
10
10
10
10
10
10
10
10
10
10
10
10
10
10
10
10
10
10
10
10
10
10
10
10
10
10
10
10
10
10
10
10
10
10
10
10
10
10
10
10
10
10
10
10
10
10
10
10
10
10
10
10
10
10
10
10
10
10
10
10
10
10
10
10
10
10
10
10
10
10
10
10
10
10
10
10
10
10
10
10
10
10
10
10
10
10
10
10
10
10
10
10
10
10
10
10
10
10
10
10
10
10
10
10
10
10
10
10
10
10
10
10
10
10
10
10
10
10
10
10
10
10
10
10
10
10
10
10
10
10
10
10
10
10
10
10
10
10
10
10
10
10
10
10
10
10
10
10
10
10
10
10
10
10
10
10
10
10
10
10
10
10
10
10
10
10
10
10
10
10
10
10
10
10
10
10
10
10
10
10
10
10
10
10
10
10
10
10
10
10
10
10
10
10
10
10
10
10
10
10
10
10
10
10
10
10
10
10
10
10
10
10
10
10
10
10
10
10
10
10
10
10
10
10
10
10
10
10
10
10
10
10
10
10
10
10
10
10
10
10
10
10
10
10
10
10
10
10
10
10
10
10
10
10
10
10
10
10
10
10
10
10
10
10
10
10
10
10
10
10
10
10
10
10
10
10
10
10
10
10
10
10
10
10
10
10
10
10
10
10
10
10
10
10
10
10
10
10
10
10
10
10
10
10
10
10
10
10
10
10
10
10
10
10
10
10
10
10
10
10
10
10
10
10
10
10
10
10
10
10
10
10
10
10
10
10
10
10
10
10
10
10
10
10
10
10
10
10
10
10
10
10
10
10
10
10
10
10
10
10
10
10
10
10
10
10
10
10
10
10
10
10
10
10
10
10
10
10
10
10
10
10
10
10
10
10
10
10
10
10
10
10
10
10
10
10
10
10
10
10
10
10
10
10
10
10
10
10
10
10
10
10
10
10
10
10
10
10
10
10
10
10
10
10
10
10
10
10
10
10
10
10
10
10
10
10
10
10
10
10
10
10
10
10
10
10
10
10
10
10
10
10
10
10
10
10
10
10
10
10
10
10
10
10
10
10
10
10
10
10
10
10
10
10
10
10
10
10
10
10
10
10
10
10
10
10
10
10
10
10
10
10
10
10
10
10
10
10
10
10
10
10
10
10
10
10
10
10
10
10
10
10
10
10
10
10
10
10
10
10
10
10
10
10
10
10
10
10
10
10
10
10
10
10
10
10
10
10
10
10
10
10
10
10
10
10
10
10
10
10
10
10
10
10
10
10
10
10
10
10
10
10
10
10
10
10
10
10
10
10
10
10
10
10
10
10
10
10
10
10
10
10
10
10
10
10
10
10
10
10
10
10
10
10
10
10
10
10
10
10
10
10
10
10
10
10
10
10
10
10
10
10
10
10
10
10
10
10
10
10
10
10
10
10
10
10
10
10
10
10
10
10
10
10
10
10
10
10
10
10
10
10
10
10
10
10
10
10
10
10
10
10
10
10
10
10
10
10
10
10
10
10
10
10
10
10
10
10
10
10
10
10
10
10
10
10
10
10
10
10
10
10
10
10
10
10
10
10
10
10
10
10
10
10
10
10
10
10
10
10
10
10
10
10
10
10
10
10
10
10
10
10
10
10
10
10
10
10
10
10
10
10
10
10
10
10
10
10
10
10
10
10
10
10
10
10
10
10
10
10
10
10
10
10
10
10
10
10
10
10
10
10
10
10
10
10
10
10
10
10
10
10
10
10
10
10
10
10
10
10
10
10
10
10
10
10
10
10
10
10
10
10
10
10
10
10
10
10
10
10
10
10
10
10
10
10
10
10
10
10
10
10
10
10
10
10
10
10
10
10
10
10
10
10
10
10
10
10
10
10
10
10
10
10
10
10
10
10
10
10
10
10
10
10
10
10
10
10
10
10
10
10
10
10
10
10
10
10
10
10
10
10
10
10
10
10
10
10
10
10
10
10
10
10
10
10
10
10
10
10
10
10
10
10
10
10
10
10
10
10
10
10
10
10
10
10
10
10
10
10
10
10
10
10
10
10
10
10
10
10
10
10
10
10
10
10
10
10
10
10
10
10
10
10
10
10
10
10
10
10
10
10
10
10
10
10
10
10
10
10
10
10
10
10
10
10
10
10
10
10
10
10
10
10
10
10
10
10
10
10
10
10
10
10
10
10
10
10
10
10
10
10
10
10
10
10
10
10
10
10
10
10
10
10
10
10
10
10
10
10
10
10
10
10
10
10
10
10
10
10
10
10
10
10
10
10
10
10
10
10
10
10
10
10
10
10
10
10
10
10
10
10
10
10
10
10
10
10
10
10
10
10
10
10
10
10
10
10
10
10
10
10
10
10
10
10
10
10
10
10
10
10
10
10
10
10
10
10
10
10
10
10
10
10
10
10
10
10
10
10
10
10
10
10
10
10
10
10
10
10
10
10
10
10
10
10
10
10
10
10
10
10
10
10
10
10
10
10
10
10
10
10
10
10
10
10
10
10
10
10
10
10
10
10
10
10
10
10
10
10
10
10
10
10
10
10
10
10
10
10
10
10
10
10
10
10
10
10
10
10
10
10
10
10
10
10
10
10
10
10
10
10
10
10
10
10
10
10
10
10
10
10
10
10
10
10
10
10
10
10
10
10
10
10
10
10
10
10
10
10
10
10
10
10
10
10
10
10
10
10
10
10
10
10
10
10
10
10
10
10
10
10
10
10
10
10
10
10
10
10
10
10
10
10
10
10
10
10
10
10
10
10
10
10
10
10
10
10
10
10
10
10
10
10
10
10
10
10
10
10
10
10
10
10
10
10
10
10
10
10
10
10
10
10
10
10
10
10
10
10
10
10
10
10
10
10
10
10
10
10
10
10
10
10
10
10
10
10
10
10
10
10
10
10
10
10
10
10
10
10
10
10
10
10
10
10
10
10
10
10
10
10
10
10
10
10
10
10
10
10
10
10
10
10
10
10
10
10
10
10
10
10
10
10
10
10
10
10
10
10
10
10
10
10
10
10
10
10
10
10
10
10
10
10
10
10
10
10
10
10
10
10
10
10
10
10
10
10
10
10
10
10
10
10
10
10
10
10
10
10
10
10
10
10
10
10
10
10
10
10
10
10
10
10
10
10
10
10
10
10
10
10
10
10
10
10
10
10
10
10
10
10
10
10
10
10
10
10
10
10
10
10
10
10
10
10
10
10
10
10
10
10
10
10
10
10
10
10
10
10
10
10
10
10
10
10
10
10
10
10
10
10
10
10
10
10
10
10
10
10
10
10
10
10
10
10
10
10
10
10
10
10
10
10
10
10
10
10
10
10
10
10
10
10
10
10
10
10
10
10
10
10
10
10
10
10
10
10
10
10
10
10
10
10
10
10
10
10
10
10
10
10
10
10
10
10
10
10
10
10
10
10
10
10
10
10
10
10
10
10
10
10
10
10
10
10
10
10
10
10
10
10
10
10
10
10
10
10
10
10
10
10
10
10
10
10
10
10
10
10
10
10
10
10
10
10
10
10
10
10
10
10
10
10
10
10
10
10
10
10
10
10
10
10
10
10
10
10
10
10
10
10
10
10
10
10
10
10
10
10
10
10
10
10
10
10
10
10
10
10
10
10
10
10
10
10
10
10
10
10
10
10
10
10
10
10
10
10
10
10
10
10
10
10
10
10
10
10
10
10
10
10
10
10
10
10
10
10
10
10
10
10
10
10
10
10
10
10
10
10
10
10
10
10
10
10
10
10
10
10
10
10
10
10
10
10
10
10
10
10
10
10
10
10
10
10
10
10
10
10
10
10
10
10
10
10
10
10
10
10
10
10
10
10
10
10
10
10
10
10
10
10
10
10
10
10
10
10
10
10
10
10
10
10
10
10
10
10
10
10
10
10
10
10
10
10
10
10
10
10
10
10
10
10
10
10
10
10
10
10
10
10
10
10
10
10
10
10
10
10
10
10
10
10
10
10
10
10
10
10
10
10
10
10
10
10
10
10
10
10
10
10
10
10
10
10
10
10
10
10
10
10
10
10
10
10
10
10
10
10
10
10
10
10
10
10
10
10
10
10
10
10
10
10
10
10
10
10
10
10
10
10
10
10
10
10
10
10
10
10
10
10
10
10
10
10
10
10
10
10
10
10
10
10
10
10
10
10
10
10
10
10
10
10
10
10
10
10
10
10
10
10
10
10
10
10
10
10
10
10
10
10
10
10
10
10
10
10
10
10
10
10
10
10
10
10
10
10
10
10
10
10
10
10
10
10
10
10
10
10
10
10
10
10
10
10
10
10
10
10
10
10
10
10
10
10
10
10
10
10
10
10
10
10
10
10
10
10
10
10
10
10
10
10
10
10
10
10
10
10
10
10
10
10
10
10
10
10
10
10
10
10
10
10
10
10
10
10
10
10
10
10
10
10
10
10
10
10
10
10
10
10
10
10
10
10
10
10
10
10
10
10
10
10
10
10
10
10
10
10
10
10
10
10
10
10
10
10
10
10
10
10
10
10
10
10
10
10
10
10
10
10
10
10
10
10
10
10
10
10
10
10
10
10
10
10
10
10
10
10
10
10
10
10
10
10
10
10
10
10
10
10
10
10
10
10
10
10
10
10
10
10
10
10
10
10
10
10
10
10
10
10
10
10
10
10
10
10
10
10
10
10
10
10
10
10
10
10
10
10
10
10
10
10
10
10
10
10
10
10
10
10
10
10
10
10
10
10
10
10
10
10
10
10
10
10
10
10
10
10
10
10
10
10
10
10
10
10
10
10
10
10
10
10
10
10
10
10
10
10
10
10
10
10
10
10
10
10
10
10
10
10
10
10
10
10
10
10
10
10
10
10
10
10
10
10
10
10
10
10
10
10
10
10
10
10
10
10
10
10
10
10
10
10
10
10
10
10
10
10
10
10
10
10
10
10
10
10
10
10
10
10
10
10
10
10
10
10
10
10
10
10
10
10
10
10
10
10
10
10
10
10
10
10
10
10
10
10
10
10
10
10
10
10
10
10
10
10
10
10
10
10
10
10
10
10
10
10
10
10
10
10
10
10
10
10
10
10
10
10
10
10
10
10
10
10
10
10
10
10
10
10
10
10
10
10
10
10
10
10
10
10
10
10
10
10
10
10
10
10
10
10
10
10
10
10
10
10
10
10
10
10
10
10
10
10
10
10
10
10
10
10
10
10
10
10
10
10
10
10
10
10
10
10
10
10
10
10
10
10
10
10
10
10
10
10
10
10
10
10
10
10
10
10
10
10
10
10
10
10
10
10
10
10
10
10
10
10
10
10
10
10
10
10
10
10
10
10
10
10
10
10
10
10
10
10
10
10
10
10
10
10
10
10
10
10
10
10
10
10
10
10
10
10
10
10
10
10
10
10
10
10
10
10
10
10
10
10
10
10
10
10
10
10
10
10
10
10
10
10
10
10
10
10
10
10
10
10
10
10
10
10
10
10
10
10
10
10
10
10
10
10
10
10
10
10
10
10
10
10
10
10
10
10
10
10
10
10
10
10
10
10
10
10
10
10
10
10
10
10
10
10
10
10
10
10
10
10
10
10
10
10
10
10
10
10
10
10
10
10
10
10
10
10
10
10
10
10
10
10
10
10
10
10
10
10
10
10
10
10
10
10
10
10
10
10
10
10
10
10
10
10
10
10
10
10
10
10
10
10
10
10
10
10
10
10
10
10
10
10
10
10
10
10
10
10
10
10
10
10
10
10
10
10
10
10
10
10
10
10
10
10
10
10
10
10
10
10
10
10
10
10
10
10
10
10
10
10
10
10
10
10
10
10
10
10
10
10
10
10
10
10
10
10
10
10
10
10
10
10
10
10
10
10
10
10
10
10
10
10
10
10
10
10
10
10
10
10
10
10
10
10
10
10
10
10
10
10
10
10
10
10
10
10
10
10
10
10
10
10
10
10
10
10
10
10
10
10
10
10
10
10
10
10
10
10
10
10
10
10
10
10
10
10
10
10
10
10
10
10
10
10
10
10
10
10
10
10
10
10
10
10
10
10
10
10
10
10
10
10
10
10
10
10
10
10
10
10
10
10
10
10
10
10
10
10
10
10
10
10
10
10
10
10
10
10
10
10
10
10
10
10
10
10
10
10
10
10
10
10
10
10
10
10
10
10
10
10
10
10
10
10
10
10
10
10
10
10
10
10
10
10
10
10
10
10
10
10
10
10
10
10
10
10
10
10
10
10
10
10
10
10
10
10
10
10
10
10
10
10
10
10
10
10
10
10
10
10
10
10
10
10
10
10
10
10
10
10
10
10
10
10
10
10
10
10
10
10
10
10
10
10
10
10
10
10
10
10
10
10
10
10
10
10
10
10
10
10
10
10
10
10
10
10
10
10
10
10
10
10
10
10
10
10
10
10
10
10
10
10
10
10
10
10
10
10
10
10
10
10
10
10
10
10
10
10
10
10
10
10
10
10
10
10
10
10
10
10
10
10
10
10
10
10
10
10
10
10
10
10
10
10
10
10
10
10
10
10
10
10
10
10
10
10
10
10
10
10
10
10
10
10
10
10
10
10
10
10
10
10
10
10
10
10
10
10
10
10
10
10
10
10
10
10
10
10
10
10
10
10
10
10
10
10
10
10
10
10
10
10
10
10
10
10
10
10
10
10
10
10
10
10
10
10
10
10
10
10
10
10
10
10
10
10
10
10
10
10
10
10
10
10
10
10
10
10
10
10
10
10
10
10
10
10
10
10
10
10
10
10
10
10
10
10
10
10
10
10
10
10
10
10
10
10
10
10
10
10
10
10
10
10
10
10
10
10
10
10
10
10
10
10
10
10
10
10
10
10
10
10
10
10
10
10
10
10
10
10
10
10
10
10
10
10
10
10
10
10
10
10
10
10
10
10
10
10
10
10
10
10
10
10
10
10
10
10
10
10
10
10
10
10
10
10
10
10
10
10
10
10
10
10
10
10
10
10
10
10
10
10
10
10
10
10
10
10
10
10
10
10
10
10
10
10
10
10
10
10
10
10
10
10
10
10
10
10
10
10
10
10
10
10
10
10
10
10
10
10
10
10
10
10
10
10
10
10
10
10
10
10
10
10
10
10
10
10
10
10
10
10
10
10
10
10
10
10
10
10
10
10
10
10
10
10
10
10
10
10
10
10
10
10
10
10
10
10
10
10
10
10
10
10
10
10
10
10
10
10
10
10
10
10
10
10
10
10
10
10
10
10
10
10
10
10
10
10
10
10
10
10
10
10
10
10
10
10
10
10
10
10
10
10
10
10
10
10
10
10
10
10
10
10
10
10
10
10
10
10
10
10
10
10
10
10
10
10
10
10
10
10
10
10
10
10
10
10
10
10
10
10
10
10
10
10
10
10
10
10
10
10
10
10
10
10
10
10
10
10
10
10
10
10
10
10
10
10
10
10
10
10
10
10
10
10
10
10
10
10
10
10
10
10
10
10
10
10
10
10
10
10
10
10
10
10
10
10
10
10
10
10
10
10
10
10
10
10
10
10
10
10
10
10
10
10
10
10
10
10
10
10
10
10
10
10
10
10
10
10
10
10
10
10
10
10
10
10
10
10
10
10
10
10
10
10
10
10
10
10
10
10
10
10
10
10
10
10
10
10
10
10
10
10
10
10
10
10
10
10
10
10
10
10
10
10
10
10
10
10
10
10
10
10
10
10
10
10
10
10
10
10
10
10
10
10
10
10
10
10
10
10
10
10
10
10
10
10
10
10
10
10
10
10
10
10
10
10
10
10
10
10
10
10
10
10
10
10
10
10
10
10
10
10
10
10
10
10
10
10
10
10
10
10
10
10
10
10
10
10
10
10
10
10
10
10
10
10
10
10
10
10
10
10
10
10
10
10
10
10
10
10
10
10
10
10
10
10
10
10
10
10
10
10
10
10
10
10
10
10
10
10
10
10
10
10
10
10
10
10
10
10
10
10
10
10
10
10
10
10
10
10
10
10
10
10
10
10
10
10
10
10
10
10
10
10
10
10
10
10
10
10
10
10
10
10
10
10
10
10
10
10
10
10
10
10
10
10
10
10
10
10
10
10
10
10
10
10
10
10
10
10
10
10
10
10
10
10
10
10
10
10
10
10
10
10
10
10
10
10
10
10
10
10
10
10
10
10
10
10
10
10
10
10
10
10
10
10
10
10
10
10
10
10
10
10
10
10
10
10
10
10
10
10
10
10
10
10
10
10
10
10
10
10
10
10
10
10
10
10
10
10
10
10
10
10
10
10
10
10
10
10
10
10
10
10
10
10
10
10
10
10
10
10
10
10
10
10
10
10
10
10
10
10
10
10
10
10
10
10
10
10
10
10
10
10
10
10
10
10
10
10
10
10
10
10
10
10
10
10
10
10
10
10
10
10
10
10
10
10
10
10
10
10
10
10
10
10
10
10
10
10
10
10
10
10
10
10
10
10
10
10
10
10
10
10
10
10
10
10
10
10
10
10
10
10
10
10
10
10
10
10
10
10
10
10
10
10
10
10
10
10
10
10
10
10
10
10
10
10
10
10
10
10
10
10
10
10
10
10
10
10
10
10
10
10
10
10
10
10
10
10
10
10
10
10
10
10
10
10
10
10
10
10
10
10
10
10
10
10
10
10
10
10
10
10
10
10
10
10
10
10
10
10
10
10
10
10
10
10
10
10
10
10
10
10
10
10
10
10
10
10
10
10
10
10
10
10
10
10
10
10
10
10
10
10
10
10
10
10
10
10
10
10
10
10
10
10
10
10
10
10
10
10
10
10
10
10
10
10
10
10
10
10
10
10
10
10
10
10
10
10
10
10
10
10
10
10
10
10
10
10
10
10
10
10
10
10
10
10
10
10
10
10
10
10
10
10
10
10
10
10
10
10
10
10
10
10
10
10
10
10
10
10
10
10
10
10
10
10
10
10
10
10
10
10
10
10
10
10
10
10
10
10
10
10
10
10
10
10
10
10
10
10
10
10
10
10
10
10
10
10
10
10
10
10
10
10
10
10
10
10
10
10
10
10
10
10
10
10
10
10
10
10
10
10
10
10
10
10
10
10
10
10
10
10
10
10
10
10
10
10
10
10
10
10
10
10
10
10
10
10
10
10
10
10
10
10
10
10
10
10
10
10
10
10
10
10
10
10
10
10
10
10
10
10
10
10
10
10
10
10
10
10
10
10
10
10
10
10
10
10
10
10
10
10
10
10
10
10
10
10
10
10
10
10
10
10
10
10
10
10
10
10
10
10
10
10
10
10
10
10
10
10
10
10
10
10
10
10
10
10
10
10
10
10
10
10
10
10
10
10
10
10
10
10
10
10
10
10
10
10
10
10
10
10
10
10
10
10
10
10
10
10
10
10
10
10
10
10
10
10
10
10
10
10
10
10
10
10
10
10
10
10
10
10
10
10
10
10
10
10
10
10
10
10
10
10
10
10
10
10
10
10
10
10
10
10
10
10
10
10
10
10
10
10
10
10
10
10
10
10
10
10
10
10
10
10
10
10
10
10
10
10
10
10
10
10
10
10
10
10
10
10
10
10
10
10
10
10
10
10
10
10
10
10
10
10
10
10
10
10
10
10
10
10
10
10
10
10
10
10
10
10
10
10
10
10
10
10
10
10
10
10
10
10
10
10
10
10
10
10
10
10
10
10
10
10
10
10
10
10
10
10
10
10
10
10
10
10
10
10
10
10
10
10
10
10
10
10
10
10
10
10
10
10
10
10
10
10
10
10
10
10
10
10
10
10
10
10
10
10
10
10
10
10
10
10
10
10
10
10
10
10
10
10
10
10
10
10
10
10
10
10
10
10
10
10
10
10
10
10
10
10
10
10
10
10
10
10
10
10
10
10
10
10
10
10
10
10
10
10
10
10
10
10
10
10
10
10
10
10
10
10
10
10
10
10
10
10
10
10
10
10
10
10
10
10
10
10
10
10
10
10
10
10
10
10
10
10
10
10
10
10
10
10
10
10
10
10
10
10
10
10
10
10
10
10
10
10
10
10
10
10
10
10
10
10
10
10
10
10
10
10
10
10
10
10
10
10
10
10
10
10
10
10
10
10
10
10
10
10
10
10
10
10
10
10
10
10
10
10
10
10
10
10
10
10
10
10
10
10
10
10
10
10
10
10
10
10
10
10
10
10
10
10
10
10
10
10
10
10
10
10
10
10
10
10
10
10
10
10
10
10
10
10
10
10
10
10
10
10
10
10
10
10
10
10
10
10
10
10
10
10
10
10
10
10
10
10
10
10
10
10
10
10
10
10
10
10
10
10
10
10
10
10
10
10
10
10
10
10
10
10
10
10
10
10
10
10
10
10
10
10
10
10
10
10
10
10
10
10
10
10
10
10
10
10
10
10
10
10
10
10
10
10
10
10
10
10
10
10
10
10
10
10
10
10
10
10
10
10
10
10
10
10
10
10
10
10
10
10
10
10
10
10
10
10
10
10
10
10
10
10
10
10
10
10
10
10
10
10
10
10
10
10
10
10
10
10
10
10
10
10
10
10
10
10
10
10
10
10
10
10
10
10
10
10
10
10
10
10
10
10
10
10
10
10
10
10
10
10
10
10
10
10
10
10
10
10
10
10
10
10
10
10
10
10
10
10
10
10
10
10
10
10
10
10
10
10
10
10
10
10
10
10
10
10
10
10
10
10
10
10
10
10
10
10
10
10
10
10
10
10
10
10
10
10
10
10
10
10
10
10
10
10
10
10
10
10
10
10
10
10
10
10
10
10
10
10
10
10
10
10
10
10
10
10
10
10
10
10
10
10
10
10
10
10
10
10
10
10
10
10
10
10
10
10
10
10
10
10
10
10
10
10
10
10
10
10
10
10
10
10
10
10
10
10
10
10
10
10
10
10
10
10
10
10
10
10
10
10
10
10
10
10
10
10
10
10
10
10
10
10
10
10
10
10
10
10
10
10
10
10
10
10
10
10
10
10
10
10
10
10
10
10
10
10
10

POINT_DATA	6318
SCALARS u_x double 1
LOOKUP_TABLE  table1
0
0
-0.0517411
-0.0549247
0.00609588
0.000759339
0.00905613
-0.0434994
0.00903537
0.000740526
0.0061007
-0.0460446
0
0
0.683436
0.683428
0.474669
-0.00740786
-0.0127106
0.549576
0.133252
-0.00502991
0.47394
0.685665
0.685514
-0.0106485
0.54779
0.131831
-0.00412982
-0.00657212
-0.282596
-0.280153
-0.280153
-0.00412995
-0.282596
-0.00657265
-0.282431
-0.00668091
-0.279357
-0.00447075
-0.0114589
-0.287484
-0.243563
-0.23186
0
0
0
0
0
0
0
0
0
0
0
0
0
0
0
0
0
0
0
0
0
0
-0.0550108
-0.0563027
-0.0569683
-0.0565475
-0.0551466
-0.0540364
-0.0532392
-0.0537171
-0.0548213
-0.0554884
-0.0560931
-0.0574594
-0.0585404
-0.0575792
-0.0293479
-0.0121357
-0.000959607
0.00596019
0.00960823
0.0109099
0.010831
0.010112
0.00919274
0.00830051
0.00752618
0.00690289
0.00643704
0.00474324
0.00338297
0.00214304
0.00113683
0.000425669
-6.53701e-07
-0.000205365
-0.000241715
-0.000112688
0.000212625
0.00159519
0.00285314
0.00467449
0.00691628
0.00959497
0.0102294
0.010539
0.00982001
0.00697701
0.000853558
-0.00965202
-0.0265747
-0.0477574
-0.0494079
-0.0515806
-0.0483784
-0.0462623
-0.0448334
0.00610209
0.00610368
0.00609912
0.000710568
0.000708956
0.000720945
0.00911156
0.00914057
0.00912191
0
0
0
0
0
0
-0.0233459
-0.00851807
0.00124485
0.00716371
0.00991603
0.0105753
0.0102332
0.00958477
0.0068968
0.00465206
0.00283093
0.00157676
0.000181638
-0.000169209
-0.000332052
-0.000332887
-0.000158135
0.00025947
0.000989964
0.00203859
0.00332711
0.00472437
0.00642052
0.00685379
0.00742492
0.00812952
0.00893939
0.00976944
0.0104012
0.0104039
0.00904552
0.00540039
-0.00131533
-0.0116273
-0.0269514
-0.0489055
-0.048287
-0.0484986
-0.0472691
-0.046213
-0.0458481
-0.0452689
-0.044401
-0.0450811
-0.0457936
-0.0463778
-0.0471761
-0.0465048
-0.0460472
0
0
0
0
0
0
0
0
0
0
0
0
0
0
0
0
0
0
0
0
0
0
0.683777
0.683958
0.683976
0.683864
0.68362
0.683296
0.68299
0.682828
0.682869
0.683008
0.683313
0.642145
0.60045
0.558568
0.516584
0.421102
0.367634
0.314099
0.260523
0.206978
0.153511
0.100137
0.0466777
-0.00756189
-0.00802172
-0.00847928
-0.00876555
-0.00907905
-0.00928694
-0.00952772
-0.0098196
-0.00997254
-0.0103256
-0.0106138
-0.0108612
-0.011199
-0.0115094
0.0416315
0.0954343
0.14901
0.202699
0.256425
0.310124
0.363747
0.417251
0.470662
0.524021
0.577366
0.630703
0.542166
0.520661
0.486817
0.443071
0.392508
0.338714
0.285252
0.235759
0.193314
0.160784
0.140294
0.140291
0.160879
0.193612
0.236286
0.285997
0.339452
0.393126
0.443463
0.48701
0.520822
0.542217
0.132148
0.132535
0.132922
0.549107
0.548682
0.548258
0.685038
0.684544
0.684051
0.684035
0.684475
0.684915
0.474109
0.474298
0.47449
-0.00542424
-0.00593851
-0.00656982
-0.011932
-0.0112634
-0.0107765
0.0475749
0.10062
0.153889
0.207138
0.260376
0.313644
0.367014
0.420503
0.516022
0.558078
0.600294
0.642752
0.68575
0.68606
0.686234
0.686324
0.686212
0.685943
0.685633
0.685375
0.68522
0.68517
0.685266
0.631437
0.577952
0.524455
0.470945
0.41745
0.364007
0.310636
0.257281
0.203892
0.150387
0.096663
0.0430029
-0.010058
-0.00960362
-0.00927687
-0.00896025
-0.00871944
-0.00848127
-0.0081774
-0.00784894
-0.00749968
-0.00711496
-0.00669615
-0.00630576
-0.00589242
-0.0054669
0.540996
0.520871
0.488635
0.446109
0.3962
0.342262
0.288056
0.23738
0.193764
0.16021
0.139083
0.138931
0.160005
0.193561
0.237251
0.288071
0.342311
0.396248
0.446093
0.488582
0.520905
0.540999
-0.0041767
-0.00431568
-0.00454138
-0.00484516
-0.00521529
-0.00563755
-0.00609569
-0.0617769
-0.116982
-0.172186
-0.227391
-0.282119
-0.281661
-0.281238
-0.280868
-0.280564
-0.280339
-0.2802
-0.224948
-0.169744
-0.114539
-0.0593343
-0.224948
-0.169744
-0.114539
-0.0593344
-0.00412993
-0.0041299
-0.00412987
-0.280153
-0.280153
-0.280153
-0.280641
-0.28113
-0.281619
-0.282107
-0.227392
-0.172187
-0.116981
-0.061776
-0.00608392
-0.00559547
-0.00510703
-0.00461852
-0.282597
-0.282596
-0.282592
-0.28258
-0.282544
-0.227285
-0.172137
-0.116993
-0.0618415
-0.00660848
-0.00658481
-0.0065778
-0.00657432
-0.00657321
-0.281735
-0.281073
-0.280465
-0.279898
-0.224372
-0.169386
-0.114402
-0.0594337
-0.00499743
-0.00549695
-0.00595442
-0.00636271
-0.00447817
-0.00448905
-0.00453617
-0.00463305
-0.00482536
-0.0108709
-0.0110105
-0.0111355
-0.0112325
-0.0113005
-0.0113569
-0.0113946
-0.0114191
-0.0114352
-0.0114454
-0.0114514
-0.0114548
-0.0114567
-0.0114578
-0.0114583
-0.0114586
-0.0114587
-0.0114588
-0.0114589
-0.0114589
-0.0109702
-0.0104814
-0.00999246
-0.00950356
-0.00901474
-0.00852602
-0.00803739
-0.00754892
-0.00706047
-0.286995
-0.286506
-0.286017
-0.285528
-0.28504
-0.284551
-0.284062
-0.283573
-0.283084
-0.0666638
-0.121869
-0.177074
-0.232279
-0.287484
-0.287484
-0.287484
-0.287484
-0.287485
-0.287485
-0.287486
-0.287488
-0.28749
-0.287493
-0.287498
-0.287505
-0.287516
-0.287532
-0.287556
-0.287594
-0.287654
-0.287752
-0.287902
-0.288118
-0.288389
-0.288666
-0.288855
-0.288883
-0.288658
-0.288075
-0.28698
-0.28519
-0.283019
-0.280197
-0.276938
-0.273125
-0.268575
-0.263531
-0.258277
-0.252994
-0.24844
-0.245258
-0.243905
-0.243731
-0.243425
-0.243047
-0.242376
-0.241566
-0.240768
-0.239953
-0.239031
-0.238007
-0.2371
-0.236193
-0.235153
-0.233947
-0.232758
-0.231948
-0.233495
-0.236315
-0.240613
-0.245365
-0.250439
-0.255196
-0.25953
-0.263324
-0.266597
-0.269485
-0.271977
-0.274031
-0.275659
-0.276983
-0.277935
-0.278537
-0.278873
-0.279095
-0.279214
-0.279279
-0.27932
-0.279345
-0.279351
-0.0822196
-0.1187
-0.156594
-0.194859
-0.204964
-0.165166
-0.125675
-0.0873372
-0.0384194
-0.0336847
-0.0293926
-0.0253436
-0.0215919
-0.0181966
-0.0152233
-0.0126227
-0.0104768
-0.00871356
-0.0128125
-0.0141323
-0.0160121
-0.0183967
-0.0212747
-0.0246384
-0.0284548
-0.0327859
-0.0373924
-0.0421536
-0.00403023
0.00306388
0.00715639
0.00876358
0.00893927
0.00839904
0.00754634
0.00596096
0.00545039
-0.0151621
0.00664037
-0.0270545
-0.011579
-0.0014323
0.00445242
0.00764996
0.00716245
0.00729717
-5.06163e-05
0.00130515
0.000708178
0.00245449
0.00232513
0.000677553
0.000249391
1.58089e-05
0.00219546
0.00177227
0.00151694
-0.0115852
-0.00660666
0.000943367
-0.0010342
-0.00144416
0.00131852
-0.00819823
-0.0041241
0.00142029
-0.00955187
-0.0117841
-0.0317157
-0.0198541
-0.0246466
-0.0266576
-0.0242663
-0.0205207
-0.0251083
-0.0302263
-0.0271431
-0.0275411
-0.0317782
0.00365918
0.000327961
0.000165829
-1.13534e-05
-0.000130661
-7.00309e-05
0.00133891
0.00237522
0.000835113
0.00628615
0.00402939
0.00259958
0.00153645
-0.0307698
0.0069589
0.00587514
0.00149431
0.00537376
0.00675332
-0.00526563
0.00658291
0.00471778
0.0047644
0.00298492
-0.00206138
0.00458175
0.00534314
-0.00908372
-0.0154936
-0.0134026
-0.0128803
-0.020305
-0.0124701
0.00023799
0.00396103
0.000611763
0.0025434
0.00287111
0.00275552
0.00423623
0.0024996
-0.0010707
0.00278389
-0.00181848
0.00224354
-0.0108562
-0.0090538
-0.00303913
0.00136602
0.00142085
0.00269141
0.00025786
0.00478612
0.00457633
-0.00904358
-0.0252578
-0.00523892
0.00384671
0.0024225
0.00431707
0.0050543
-0.00544165
-0.00401473
0.0023667
0.0013673
-0.0155832
1.03442e-05
0.00259545
-0.0124892
0.0038306
0.00227029
-0.0184061
0.0047269
0.0042476
-0.0172355
-0.00440091
0.00255191
0.0066556
0.00832006
0.00856543
0.00810209
0.00732765
0.00585772
0.00538456
-0.0148624
0.00648716
-0.0256508
-0.0110089
-0.00124438
0.00457106
0.00770189
0.00718806
0.00737361
-8.70675e-05
0.00127143
0.000698227
0.00228196
0.00224189
0.000644285
0.000235576
-2.95576e-05
0.00222998
0.00178736
0.00150685
-0.0118691
-0.00698253
0.00058235
-0.00147503
-0.00163215
0.00135808
-0.00872413
-0.00455111
0.0014249
-0.00980615
-0.011963
-0.0301026
-0.019864
-0.0236177
-0.0250173
-0.0228261
-0.0198269
-0.0238879
-0.0290623
-0.0262447
-0.0262633
-0.030007
0.003596
0.000300755
6.59141e-05
-5.42358e-05
-0.00019664
-0.000157769
0.00124205
0.00229167
0.000815283
0.00628761
0.00402052
0.00258578
0.00152033
-0.0291448
0.0066423
0.00569197
0.000973839
0.00491933
0.00636826
-0.00575712
0.0063333
0.00459839
0.00482511
0.00302524
-0.00208489
0.00461879
0.00539686
-0.00957212
-0.0154524
-0.0136421
-0.0130429
-0.0199329
-0.0128003
0.000194564
0.00388926
0.000506433
0.00247491
0.00287168
0.0024493
0.00409007
0.00205781
-0.00162688
0.00272347
-0.00195676
0.00230396
-0.0107803
-0.00940815
-0.00364599
0.00131278
0.00141426
0.00262922
-0.000242509
0.00453138
0.0043868
-0.00926058
-0.0248271
-0.00582025
0.00386106
0.00244019
0.00422753
0.00501401
-0.00590633
-0.00461377
0.00225575
0.00135479
-0.0152109
-1.29542e-05
0.00253229
-0.0125387
0.00371341
0.00226365
-0.0183158
0.00439285
0.00383955
-0.0170668
-0.0513146
-0.051657
-0.0504124
-0.0480755
-0.0457664
-0.0431184
-0.0413893
-0.0412698
-0.0425492
-0.0446355
-0.0470435
-0.0490236
-0.0495701
-0.0489974
-0.0482893
-0.0483599
-0.047002
-0.0445986
-0.0414768
-0.0381015
-0.0363176
-0.036508
-0.0376852
-0.0401031
-0.0427235
-0.0451289
-0.0463069
-0.0460696
-0.0482144
-0.0482076
-0.0468999
-0.0444139
-0.0424782
-0.0402367
-0.0384926
-0.0381187
-0.0394963
-0.0414813
-0.0438346
-0.0455343
-0.0457538
-0.0455032
-0.0488922
-0.0495273
-0.04968
-0.0490689
-0.0493781
-0.0492559
-0.0492276
-0.049754
-0.0496547
-0.0501457
-0.0510687
-0.0512565
-0.0515584
-0.0517044
-0.0514601
-0.052545
-0.0527161
-0.0522892
-0.0519365
-0.0516584
-0.0516121
-0.0518728
-0.0523388
-0.0527336
-0.0534478
-0.0541481
-0.0538935
-0.0539094
-0.0537651
-0.0550682
-0.0556563
-0.0553047
-0.0545391
-0.054056
-0.0537349
-0.0532134
-0.0545828
-0.055132
-0.0557439
-0.056459
-0.0566688
-0.0557496
0.00642788
0.00690527
0.00754477
0.0083541
0.00931059
0.0103432
0.0112391
0.0115664
0.0105845
0.00729653
0.000768871
-0.0100874
-0.026652
0.00641803
0.00689698
0.00753365
0.00834194
0.00930457
0.0103591
0.011297
0.0116884
0.0107966
0.00762194
0.00122839
-0.00944973
-0.0252958
0.00641887
0.00687939
0.00749308
0.00826816
0.0091842
0.0101726
0.0110242
0.011308
0.0102824
0.00697248
0.000547951
-0.00980092
-0.0245554
0.000155313
-0.000200332
-0.000344278
-0.000323146
-0.000136141
0.000281688
0.001007
0.00204393
0.00333029
0.00473446
0.000131474
-0.000238553
-0.000392894
-0.000382593
-0.000205155
0.000209298
0.000937999
0.00199368
0.00330343
0.00473382
0.000138977
-0.000228718
-0.000389213
-0.00038576
-0.000212646
0.000200846
0.000935582
0.00199236
0.00330154
0.00472449
0.00693867
0.0046188
0.00277706
0.00154428
0.00695658
0.00459375
0.00274967
0.00152055
0.00692861
0.00460838
0.00276661
0.00153493
-0.0238607
-0.00752576
0.00262977
0.00831984
0.0107773
0.0111662
0.0105937
0.00974846
-0.0222564
-0.00681402
0.00321803
0.00877248
0.0110954
0.011374
0.0107142
0.00978947
-0.0214878
-0.00702535
0.00274696
0.0083762
0.0108166
0.0111862
0.010598
0.0097443
0
0
0
0
0
0
0
0
0
0
0
0
0
0
0
0
0
0
0
0
0
0
0
0
0
0
0
0
0
0
0
0
0
0
0
0
0
0
0
0
0
0
0
0
0
0
0
0
0
0
0
0
0
0
0
0
0
0
0
0
0
0
0
0
0
0
0.624937
0.630035
0.637381
0.636452
0.634179
0.639619
0.632159
0.631072
0.638311
0.639174
0.526951
0.368514
0.20195
0.31741
0.0932596
0.473928
0.261206
0.421221
0.146936
0.580737
0.0980967
0.152721
0.208364
0.261877
0.312491
0.0450885
0.365539
0.585815
0.582656
0.183993
0.266551
0.181464
0.493961
0.135097
0.366012
0.392967
0.302921
0.114578
0.109755
0.241427
0.570911
0.497386
0.581332
0.407736
0.532604
0.289433
0.431959
0.526104
0.16085
0.0926849
0.0843704
0.0420811
0.0489569
0.0482169
0.0420028
0.0260219
0.0401095
0.040398
0.0411906
0.0448252
0.0574575
0.0432585
0.440432
0.575011
0.542641
0.498317
0.633567
0.586166
0.593801
0.59266
0.0407152
0.422787
0.473776
0.586278
0.298928
0.201943
0.24544
0.144587
0.368491
0.271875
0.309734
0.150745
0.214747
0.343904
0.0904503
0.0910335
0.0916006
0.0885119
0.131098
0.5552
0.457521
0.397396
0.0954909
0.50853
0.333238
0.240013
0.46569
0.421062
0.184635
0.250336
0.194432
0.344782
0.13271
0.095018
0.139112
0.134356
0.0434293
0.558272
0.14028
0.540883
0.271589
0.385468
0.300734
0.14258
0.595143
0.587682
0.454896
0.225205
0.0987578
0.341835
0.606295
0.0821579
0.548928
0.326179
0.0933133
0.216306
0.0916269
0.529923
0.625868
0.631107
0.638209
0.637124
0.635169
0.641
0.633307
0.63219
0.639007
0.640409
0.527715
0.369366
0.203211
0.318373
0.0941414
0.47471
0.262405
0.422019
0.148144
0.581441
0.0984779
0.153142
0.208745
0.262113
0.312564
0.0454724
0.365633
0.5855
0.582585
0.184952
0.268608
0.181886
0.495285
0.135027
0.368694
0.395158
0.305219
0.114123
0.109074
0.242604
0.571457
0.499291
0.581637
0.410476
0.533655
0.291094
0.434082
0.527151
0.160866
0.0918935
0.0837674
0.0421217
0.0487084
0.0480579
0.0420551
0.0263652
0.0400734
0.0402346
0.0412463
0.044746
0.0571584
0.0431054
0.440641
0.575657
0.543214
0.498785
0.634294
0.587084
0.594637
0.593582
0.0411688
0.424177
0.475051
0.587064
0.300484
0.20327
0.246881
0.145591
0.370046
0.272505
0.31019
0.151172
0.215402
0.344604
0.0906095
0.0910168
0.0920196
0.0884541
0.131062
0.555772
0.458884
0.398611
0.0956645
0.510074
0.33538
0.241621
0.467507
0.423061
0.185799
0.251313
0.195126
0.346342
0.132293
0.0948863
0.139557
0.134502
0.0435636
0.559311
0.141032
0.542168
0.273281
0.387542
0.301872
0.142912
0.595918
0.587358
0.457306
0.226705
0.0980425
0.343971
0.607108
0.0817909
0.550145
0.327538
0.0930907
0.217733
0.0916735
0.531011
0.13997
0.1606
0.19338
0.236135
0.285993
0.339648
0.393501
0.443872
0.48729
0.52075
0.541881
0.1396
0.16038
0.19343
0.23651
0.286676
0.340532
0.394398
0.444601
0.487717
0.520797
0.54159
0.139235
0.160166
0.193485
0.236881
0.287352
0.341407
0.395286
0.445321
0.488135
0.520837
0.541296
0.54191
0.520838
0.487444
0.444132
0.393913
0.340163
0.286511
0.236553
0.193663
0.160737
0.140017
0.541598
0.520832
0.487804
0.444765
0.394642
0.340838
0.287013
0.236826
0.193686
0.160547
0.139685
0.54129
0.520833
0.488173
0.445408
0.395381
0.341521
0.287522
0.237101
0.193712
0.160359
0.139357
0.683908
0.683797
0.683743
0.683738
0.683829
0.683978
0.684132
0.684244
0.684287
0.68425
0.684101
0.684528
0.684531
0.68455
0.684576
0.684603
0.684623
0.684631
0.684624
0.684602
0.684566
0.684522
0.68515
0.685266
0.685357
0.685414
0.685375
0.685266
0.685128
0.685002
0.684914
0.684881
0.684943
0.516437
0.558428
0.6004
0.642323
0.516295
0.558313
0.600362
0.642442
0.516157
0.558203
0.600329
0.642564
0.0469224
0.100313
0.153616
0.20701
0.260472
0.313964
0.36746
0.420952
0.0470794
0.10035
0.153676
0.207038
0.260432
0.313858
0.367315
0.420794
0.0472296
0.100408
0.153746
0.207075
0.260401
0.313758
0.367174
0.420641
0.630994
0.577564
0.524145
0.470736
0.417299
0.363808
0.310255
0.256648
0.203018
0.149421
0.0959067
0.0422807
0.631071
0.577661
0.524242
0.470809
0.417359
0.363888
0.310394
0.25687
0.203315
0.149723
0.0960836
0.0423752
0.631146
0.577757
0.524336
0.47088
0.417415
0.363963
0.310527
0.257084
0.203603
0.150013
0.0962443
0.0424708
-0.0114498
-0.0109922
-0.0105862
-0.0102364
-0.0098892
-0.00962216
-0.00934558
-0.00904164
-0.00874941
-0.00844467
-0.00812539
-0.00778948
-0.00742337
-0.00704789
-0.0109021
-0.0104844
-0.0101203
-0.00979937
-0.00949931
-0.00920825
-0.00891646
-0.00863114
-0.00832519
-0.00799697
-0.00765425
-0.00729481
-0.00692155
-0.00654078
-0.0103638
-0.00994399
-0.00963792
-0.00935969
-0.00911292
-0.00880678
-0.00851915
-0.00822983
-0.00792431
-0.00757515
-0.00720523
-0.00682328
-0.00641315
-0.00601333
-0.00575213
-0.00613826
-0.00659459
-0.00694305
-0.00734791
-0.00768642
-0.00801692
-0.00832907
-0.00859636
-0.00886432
-0.00907978
-0.00936985
-0.00965573
-0.0100815
-0.00617834
-0.0065857
-0.00701364
-0.00735919
-0.00773074
-0.00805268
-0.00833185
-0.00863018
-0.00888155
-0.00915045
-0.00939292
-0.00966427
-0.00992889
-0.0103448
-0.0068036
-0.00725279
-0.00762892
-0.00793611
-0.00835354
-0.00860331
-0.0088724
-0.00919594
-0.00937004
-0.00960911
-0.00989134
-0.0101357
-0.0103773
-0.0107922
-0.0593812
-0.0595202
-0.0597459
-0.0600497
-0.0604199
-0.0608422
-0.0613004
-0.114586
-0.114725
-0.114951
-0.115254
-0.115624
-0.116047
-0.116505
-0.169791
-0.16993
-0.170155
-0.170459
-0.170829
-0.171251
-0.17171
-0.224995
-0.225134
-0.22536
-0.225664
-0.226034
-0.226456
-0.226914
-0.224948
-0.169744
-0.114539
-0.0593344
-0.224948
-0.169744
-0.114539
-0.0593343
-0.224948
-0.169744
-0.114539
-0.0593343
-0.225437
-0.225925
-0.226414
-0.226903
-0.170232
-0.170721
-0.171209
-0.171698
-0.115028
-0.115516
-0.116005
-0.116493
-0.059823
-0.0603115
-0.0607999
-0.0612882
-0.227395
-0.227395
-0.227392
-0.227381
-0.227348
-0.172189
-0.172188
-0.172185
-0.172181
-0.172166
-0.116981
-0.11698
-0.116978
-0.116976
-0.116974
-0.0617746
-0.0617741
-0.0617739
-0.0617785
-0.0617958
-0.226644
-0.226041
-0.225463
-0.224906
-0.171558
-0.171009
-0.170461
-0.16992
-0.116496
-0.115997
-0.11547
-0.114941
-0.061432
-0.0609736
-0.0604849
-0.0599658
-0.0045459
-0.00455731
-0.0045855
-0.00459057
-0.00527244
-0.00478522
-0.00565989
-0.00598405
-0.00493739
-0.00637357
-0.00615029
-0.00720357
-0.0075604
-0.00787644
-0.00779267
-0.00828139
-0.00518745
-0.00570997
-0.00599501
-0.00646668
-0.00687402
-0.00890396
-0.00930128
-0.0102123
-0.00730964
-0.00877017
-0.00926022
-0.0102692
-0.0108044
-0.00683565
-0.00653558
-0.00632969
-0.0110212
-0.0109817
-0.0110299
-0.0109545
-0.0108669
-0.0107277
-0.0109167
-0.0110013
-0.0110131
-0.0110257
-0.0110282
-0.0110314
-0.0110321
-0.0110343
-0.0107994
-0.0110308
-0.011033
-0.0070323
-0.00521468
-0.00513821
-0.00501908
-0.00704343
-0.00702119
-0.00701781
-0.00706433
-0.00703393
-0.0061052
-0.00565377
-0.00504181
-0.00499556
-0.00660911
-0.00454338
-0.00821919
-0.00560065
-0.00971515
-0.00975573
-0.00592982
-0.00803632
-0.00729584
-0.00854778
-0.00534622
-0.00585541
-0.0092234
-0.00901516
-0.00755306
-0.00765398
-0.00852554
-0.00614786
-0.00694279
-0.00657762
-0.00708022
-0.00633443
-0.00681264
-0.00703411
-0.0106016
-0.0106009
-0.010568
-0.0105895
-0.0105954
-0.0105482
-0.0110652
-0.0105196
-0.0104812
-0.0105809
-0.0104335
-0.0103701
-0.0105987
-0.0106023
-0.010588
-0.0106029
-0.010583
-0.00745312
-0.00566355
-0.00549736
-0.00745944
-0.00746346
-0.00747301
-0.0074609
-0.00639016
-0.0105671
-0.00685005
-0.00496155
-0.00612513
-0.00568935
-0.00950868
-0.00840804
-0.00740457
-0.00828016
-0.00632274
-0.00877201
-0.00703894
-0.00668861
-0.00779513
-0.00882825
-0.01001
-0.00802659
-0.0096962
-0.0060948
-0.00731983
-0.00544355
-0.010224
-0.0101334
-0.0101563
-0.0101469
-0.0101741
-0.0101632
-0.0101725
-0.0101134
-0.0101672
-0.0101702
-0.0101723
-0.0100835
-0.010087
-0.0101587
-0.0100521
-0.0100147
-0.00679321
-0.00657436
-0.00747968
-0.00789
-0.00788689
-0.00591844
-0.00789397
-0.00789842
-0.00494312
-0.0066125
-0.00538144
-0.00598877
-0.00708313
-0.0058115
-0.00822641
-0.00865081
-0.00976605
-0.00852067
-0.00682052
-0.00713491
-0.00926951
-0.00803463
-0.00906997
-0.0095672
-0.0049256
-0.00578103
-0.00781222
-0.00755701
-0.00999367
-0.010203
-0.00976187
-0.00974188
-0.00974431
-0.00971329
-0.00970961
-0.00973892
-0.00971587
-0.00972743
-0.00974047
-0.00963216
-0.00965315
-0.00970003
-0.00968168
-0.00974366
-0.00491217
-0.00720194
-0.0063339
-0.00706359
-0.00790586
-0.00790893
-0.00834151
-0.0083491
-0.00835242
-0.0106713
-0.00683664
-0.00563392
-0.00535556
-0.00731455
-0.00756767
-0.0080434
-0.00845982
-0.00888579
-0.009275
-0.00902083
-0.00825261
-0.00778097
-0.00612063
-0.0068227
-0.00930931
-0.00929857
-0.00928178
-0.00929292
-0.0093137
-0.00926607
-0.00926183
-0.0091819
-0.00926196
-0.00926689
-0.00931988
-0.00924618
-0.00924954
-0.00730681
-0.00836271
-0.00751422
-0.0083532
-0.00880762
-0.00880718
-0.00792914
-0.00707077
-0.0063692
-0.00522077
-0.00756009
-0.00830332
-0.00867993
-0.00752117
-0.00953246
-0.00874618
-0.00659229
-0.00799046
-0.00885159
-0.00886722
-0.00883041
-0.0088869
-0.00893918
-0.00881589
-0.00880664
-0.00881804
-0.00880684
-0.00758107
-0.00733432
-0.00787541
-0.00837326
-0.00837077
-0.00795399
-0.00615051
-0.00791167
-0.00840555
-0.00842595
-0.00845032
-0.00841658
-0.00887088
-0.00590947
-0.00803976
-0.00544889
-0.00651133
-0.00573442
-0.23179
-0.231301
-0.230812
-0.230323
-0.229835
-0.229346
-0.228857
-0.228368
-0.22788
-0.176585
-0.176096
-0.175607
-0.175118
-0.17463
-0.174141
-0.173652
-0.173163
-0.172675
-0.12138
-0.120891
-0.120402
-0.119913
-0.119425
-0.118936
-0.118447
-0.117959
-0.11747
-0.0661751
-0.0656863
-0.0651974
-0.0647086
-0.0642198
-0.0637311
-0.0632424
-0.0627538
-0.0622653
-0.282001
-0.280936
-0.281669
-0.280624
-0.280751
-0.282375
-0.282861
-0.28706
-0.287061
-0.287449
-0.28705
-0.287056
-0.280966
-0.28138
-0.281868
-0.280596
-0.2806
-0.280701
-0.28127
-0.282393
-0.283337
-0.28382
-0.284307
-0.284796
-0.285286
-0.28578
-0.28629
-0.286824
-0.287062
-0.283
-0.287063
-0.283015
-0.287065
-0.283013
-0.287069
-0.283002
-0.287075
-0.282983
-0.287084
-0.282962
-0.287099
-0.287122
-0.287157
-0.287215
-0.2873
-0.28766
-0.287913
-0.288235
-0.288489
-0.288617
-0.288527
-0.288134
-0.287372
-0.286115
-0.283954
-0.281504
-0.278208
-0.27483
-0.270409
-0.265749
-0.260391
-0.255027
-0.250369
-0.246658
-0.24445
-0.23864
-0.239695
-0.240582
-0.241435
-0.242294
-0.243039
-0.243532
-0.279738
-0.279685
-0.279605
-0.27946
-0.279132
-0.278713
-0.278005
-0.276863
-0.275181
-0.273373
-0.270982
-0.268368
-0.265318
-0.261748
-0.257486
-0.252974
-0.248258
-0.243377
-0.2385
-0.235131
-0.233151
-0.282075
-0.281398
-0.280727
-0.280076
-0.282128
-0.281211
-0.281683
-0.281084
-0.281032
-0.282636
-0.280599
-0.28102
-0.237784
-0.243777
-0.279778
-0.287049
-0.284064
-0.286639
-0.24616
-0.267747
-0.287129
-0.281612
-0.286641
-0.286712
-0.286759
-0.251941
-0.264031
-0.233879
-0.28554
-0.286038
-0.287374
-0.287959
-0.280042
-0.278877
-0.277964
-0.274979
-0.272833
-0.24081
-0.242041
-0.24419
-0.28015
-0.288181
-0.287932
-0.286088
-0.284479
-0.282095
-0.279438
-0.280206
-0.286637
-0.272086
-0.237335
-0.235937
-0.236875
-0.281082
-0.284553
-0.286636
-0.285046
-0.283584
-0.286631
-0.286611
-0.286636
-0.286646
-0.286654
-0.286665
-0.286683
-0.286941
-0.286827
-0.279839
-0.279492
-0.276672
-0.270272
-0.262661
-0.239929
-0.242804
-0.260152
-0.257186
-0.247791
-0.243613
-0.244699
-0.287671
-0.288165
-0.287307
-0.267403
-0.276091
-0.255815
-0.251295
-0.241336
-0.234587
-0.281041
-0.279765
-0.283109
-0.282115
-0.281709
-0.2827
-0.282937
-0.28345
-0.283453
-0.283453
-0.283453
-0.283452
-0.28243
-0.281445
-0.234791
-0.281414
-0.280336
-0.282884
-0.281337
-0.281831
-0.238998
-0.286808
-0.263114
-0.249523
-0.249825
-0.242226
-0.26949
-0.244533
-0.266562
-0.279851
-0.240145
-0.286212
-0.259809
-0.243448
-0.245394
-0.264793
-0.273304
-0.237043
-0.244476
-0.254409
-0.235966
-0.27697
-0.269546
-0.246443
-0.259044
-0.254632
-0.272346
-0.282424
-0.274528
-0.284329
-0.276392
-0.285871
-0.277811
-0.278914
-0.286726
-0.279719
-0.287264
-0.286235
-0.28018
-0.28622
-0.286609
-0.287461
-0.28431
-0.286214
-0.280471
-0.286383
-0.286471
-0.2858
-0.286321
-0.286213
-0.287042
-0.286208
-0.286253
-0.286212
-0.285303
-0.280635
-0.287415
-0.28628
-0.283827
-0.284804
-0.286213
-0.287276
-0.286193
-0.23812
-0.280716
-0.286608
-0.286589
-0.280252
-0.283351
-0.282372
-0.282634
-0.283436
-0.283938
-0.283922
-0.28392
-0.283951
-0.281747
-0.282656
-0.28148
-0.283118
-0.281257
-0.285788
-0.286767
-0.285871
-0.286768
-0.285785
-0.281124
-0.285064
-0.285572
-0.286099
-0.286245
-0.280883
-0.286608
-0.280468
-0.286133
-0.285918
-0.279841
-0.285366
-0.278909
-0.284082
-0.277616
-0.275984
-0.246201
-0.237249
-0.241506
-0.282325
-0.274029
-0.286117
-0.280111
-0.271527
-0.277222
-0.268693
-0.265306
-0.273949
-0.261787
-0.270048
-0.266014
-0.257363
-0.261478
-0.252913
-0.255863
-0.247852
-0.251312
-0.243428
-0.248481
-0.247928
-0.238756
-0.246914
-0.246131
-0.285991
-0.239757
-0.240546
-0.285793
-0.285778
-0.285836
-0.285775
-0.285777
-0.286617
-0.286416
-0.28579
-0.285785
-0.285815
-0.284562
-0.284072
-0.28623
-0.280766
-0.283591
-0.282046
-0.280743
-0.282373
-0.283005
-0.283138
-0.287086
-0.283928
-0.283921
-0.284424
-0.2844
-0.284517
-0.28288
-0.281755
-0.2822
-0.283353
-0.281798
-0.281592
-0.285358
-0.286078
-0.285347
-0.285914
-0.285432
-0.28539
-0.285803
-0.285533
-0.28608
-0.281276
-0.285597
-0.280767
-0.279994
-0.285339
-0.284833
-0.285509
-0.283744
-0.278879
-0.282226
-0.277553
-0.275759
-0.280284
-0.24513
-0.273587
-0.277818
-0.271
-0.274968
-0.268024
-0.264691
-0.242163
-0.271364
-0.26769
-0.263118
-0.260906
-0.25193
-0.246448
-0.256466
-0.258258
-0.252884
-0.251414
-0.250771
-0.243096
-0.244158
-0.284814
-0.281392
-0.285325
-0.285971
-0.285705
-0.285397
-0.285342
-0.285847
-0.285373
-0.285326
-0.285382
-0.285382
-0.284318
-0.281301
-0.283831
-0.281801
-0.282677
-0.28329
-0.282875
-0.284421
-0.283511
-0.2844
-0.284879
-0.284929
-0.281957
-0.283115
-0.282402
-0.282039
-0.283591
-0.282312
-0.282037
-0.285258
-0.285425
-0.284893
-0.284902
-0.281615
-0.285
-0.284856
-0.285431
-0.2851
-0.285018
-0.2843
-0.280961
-0.2801
-0.283315
-0.284936
-0.281996
-0.278848
-0.280191
-0.277316
-0.275251
-0.277943
-0.272841
-0.249587
-0.275248
-0.270152
-0.26705
-0.263454
-0.271904
-0.264076
-0.268308
-0.25958
-0.259431
-0.250637
-0.254848
-0.255405
-0.248794
-0.28494
-0.285192
-0.285368
-0.284875
-0.284867
-0.285276
-0.284973
-0.284567
-0.284061
-0.28234
-0.283678
-0.282633
-0.283313
-0.283362
-0.28392
-0.284326
-0.284414
-0.255529
-0.281883
-0.282813
-0.282473
-0.284657
-0.284343
-0.284799
-0.281933
-0.283784
-0.284613
-0.281173
-0.283032
-0.284471
-0.2801
-0.281842
-0.284816
-0.280321
-0.278741
-0.277032
-0.278384
-0.274906
-0.275861
-0.27245
-0.272778
-0.269725
-0.25522
-0.247483
-0.266542
-0.26939
-0.262716
-0.265408
-0.260575
-0.258249
-0.253172
-0.252615
-0.284686
-0.284805
-0.28475
-0.282479
-0.284223
-0.282145
-0.282964
-0.283625
-0.283819
-0.283911
-0.283828
-0.284102
-0.256651
-0.2833
-0.282892
-0.283796
-0.284077
-0.283302
-0.282294
-0.284219
-0.282565
-0.284206
-0.281412
-0.281542
-0.280201
-0.280187
-0.278645
-0.278407
-0.276702
-0.27619
-0.274393
-0.273559
-0.271384
-0.269879
-0.26871
-0.266082
-0.266109
-0.26187
-0.28428
-0.28303
-0.284266
-0.283674
-0.259635
-0.283692
-0.284546
-0.283198
-0.284178
-0.283409
-0.283542
-0.283827
-0.262715
-0.285031
-0.243786
-0.284235
-0.284484
-0.282588
-0.0887701
-0.0895136
-0.0892916
-0.0888635
-0.0883951
-0.0876575
-0.0868343
-0.0868648
-0.0868717
-0.0867723
-0.0871473
-0.0871477
-0.086126
-0.0849035
-0.126781
-0.126726
-0.126411
-0.12599
-0.125406
-0.124861
-0.124141
-0.123734
-0.123389
-0.123107
-0.122767
-0.122555
-0.122015
-0.121139
-0.165531
-0.165602
-0.165401
-0.165001
-0.164288
-0.163596
-0.162871
-0.162262
-0.161725
-0.161318
-0.16079
-0.160287
-0.159391
-0.158135
-0.205079
-0.205132
-0.204707
-0.204128
-0.203358
-0.202488
-0.201783
-0.201098
-0.200176
-0.199224
-0.19847
-0.197791
-0.196826
-0.19572
-0.0594286
-0.114396
-0.169383
-0.224375
-0.0594172
-0.114385
-0.169376
-0.22437
-0.0594175
-0.114366
-0.169358
-0.224352
-0.0594218
-0.114354
-0.16933
-0.224312
-0.0594842
-0.114379
-0.169309
-0.224254
-0.0597074
-0.114519
-0.169316
-0.224162
-0.0601249
-0.114724
-0.169345
-0.22403
-0.0605725
-0.114966
-0.169308
-0.223774
-0.0611173
-0.115227
-0.169193
-0.223344
-0.0618352
-0.115546
-0.169105
-0.222808
-0.0627197
-0.115928
-0.168889
-0.222102
-0.0636981
-0.116209
-0.168545
-0.220988
-0.0649247
-0.11646
-0.168122
-0.21971
-0.0664453
-0.11696
-0.167635
-0.21821
-0.0682106
-0.117555
-0.166942
-0.216399
-0.0702306
-0.11825
-0.166352
-0.214434
-0.0724977
-0.11884
-0.165647
-0.212193
-0.0749398
-0.119634
-0.164851
-0.209672
-0.0772908
-0.120326
-0.163675
-0.206931
-0.0795186
-0.120265
-0.162208
-0.20387
-0.0802389
-0.119618
-0.160273
-0.20106
-0.0799492
-0.118462
-0.158462
-0.19828
-0.080286
-0.117812
-0.157077
-0.196195
-0.0807836
-0.117924
-0.156405
-0.195092
-0.0858638
-0.124849
-0.164962
-0.205276
-0.0853173
-0.124777
-0.165509
-0.206301
-0.0851461
-0.125404
-0.166909
-0.208351
-0.0859444
-0.126951
-0.169101
-0.211347
-0.0851248
-0.128285
-0.171101
-0.21474
-0.0832172
-0.128093
-0.172799
-0.217764
-0.0804641
-0.12745
-0.174115
-0.220745
-0.0782059
-0.126668
-0.174903
-0.223067
-0.0760318
-0.125865
-0.175454
-0.225509
-0.0740511
-0.125322
-0.176318
-0.227661
-0.0723742
-0.124754
-0.176802
-0.229121
-0.0710093
-0.1243
-0.177258
-0.230562
-0.0699934
-0.123922
-0.177582
-0.231518
-0.0692786
-0.123558
-0.1778
-0.232291
-0.0683622
-0.123083
-0.177742
-0.232703
-0.0674243
-0.122576
-0.177598
-0.232886
-0.0668321
-0.122193
-0.177464
-0.232915
-0.0664711
-0.121936
-0.177306
-0.232835
-0.0660857
-0.121656
-0.177163
-0.232705
-0.0660733
-0.121566
-0.177067
-0.232585
-0.0661966
-0.121601
-0.177032
-0.232487
-0.0663435
-0.121672
-0.17704
-0.232423
-0.0664474
-0.121736
-0.177055
-0.23238
-0.0665236
-0.121785
-0.177068
-0.23235
-0.0665748
-0.12182
-0.177076
-0.23233
-0.0666088
-0.121841
-0.177079
-0.232315
-0.0666293
-0.121852
-0.177081
-0.232305
-0.0666431
-0.12186
-0.17708
-0.232298
-0.0666517
-0.121864
-0.177079
-0.232292
-0.0666566
-0.121867
-0.177079
-0.232288
-0.0666596
-0.121868
-0.177077
-0.232285
-0.0666613
-0.121869
-0.177076
-0.232283
-0.0666624
-0.121869
-0.177076
-0.232282
-0.066663
-0.121869
-0.177075
-0.232281
-0.0666632
-0.121869
-0.177075
-0.23228
-0.0666635
-0.121869
-0.177074
-0.23228
-0.0666636
-0.121869
-0.177074
-0.232279
-0.0666637
-0.121869
-0.177074
-0.232279
-0.0666638
-0.121869
-0.177074
-0.232279
-0.0413028
-0.0358313
-0.0312627
-0.0271379
-0.0233187
-0.0199756
-0.0170704
-0.0147156
-0.0128662
-0.011617
-0.0420141
-0.0358243
-0.0309023
-0.0266689
-0.0229155
-0.0196368
-0.0167259
-0.0145086
-0.0127505
-0.0115884
-0.0407201
-0.035622
-0.0308242
-0.026681
-0.0228134
-0.0196644
-0.0168101
-0.0145541
-0.012646
-0.0115119
-0.0409817
-0.0357201
-0.0309942
-0.0264093
-0.0227059
-0.0195894
-0.016837
-0.0144513
-0.0125942
-0.011357
-0.0405278
-0.0353256
-0.0305694
-0.0267809
-0.022794
-0.0195995
-0.0168397
-0.0145205
-0.0126469
-0.0112671
-0.0393843
-0.0347049
-0.0304435
-0.0266703
-0.0226563
-0.0196657
-0.0168639
-0.0145437
-0.01271
-0.0111381
-0.0388958
-0.0343809
-0.0305402
-0.0262666
-0.0228893
-0.0197068
-0.0169563
-0.0145098
-0.0126259
-0.0109732
-0.0398153
-0.0344691
-0.0305096
-0.026309
-0.0228728
-0.0197883
-0.0168396
-0.0142193
-0.0124082
-0.010714
-0.0392268
-0.0346992
-0.0301308
-0.0263622
-0.0228584
-0.0197745
-0.0168589
-0.0143097
-0.0123161
-0.0105909
-0.0391812
-0.0349658
-0.0304611
-0.0264956
-0.0228895
-0.0194901
-0.0166179
-0.0141268
-0.012134
-0.0103627
-0.0408312
-0.035401
-0.0304779
-0.0264701
-0.022557
-0.0191072
-0.0163766
-0.0139298
-0.0116805
-0.0100573
-0.0394548
-0.0345404
-0.0301893
-0.026195
-0.0225003
-0.019231
-0.0162013
-0.0136508
-0.0115143
-0.00976925
-0.0409669
-0.0348016
-0.0301681
-0.0259365
-0.0221904
-0.0188257
-0.0158668
-0.0132493
-0.0110713
-0.00930841
-0.0389387
-0.0339971
-0.0297016
-0.0256209
-0.0218703
-0.018419
-0.0154597
-0.0128525
-0.0106426
-0.00882164
-0.00224431
0.00446798
0.00818056
0.00946172
0.00938975
0.00865975
0.00766729
0.005958
0.00543021
-0.0130804
0.00667875
-0.0254847
-0.00949865
0.000279047
0.00577414
0.00818534
0.00739596
0.00821753
-0.000103375
0.00102647
0.000546456
0.00267398
0.00205757
0.000500623
0.000141249
-6.38021e-05
0.00195596
0.00148168
0.00118044
-0.00711719
-0.00254357
0.00192154
0.000629233
0.000378732
0.00191626
-0.00428426
-0.00125236
0.00117044
-0.00477408
-0.00701062
-0.0297695
-0.0179453
-0.022428
-0.0239344
-0.0215165
-0.0178988
-0.0226441
-0.0286543
-0.0253856
-0.02534
-0.0295962
0.00359624
0.000242898
4.98073e-05
-9.47603e-05
-0.000217722
-0.000170722
0.00121157
0.00227578
0.000750578
0.0063224
0.00396032
0.0025149
0.00144538
-0.0292284
0.0073725
0.00593456
0.00291691
0.0063539
0.00741899
-0.00339774
0.00679278
0.00466024
0.00521881
0.00420877
-0.000403554
0.00464722
0.00625145
-0.00645889
-0.0134065
-0.0110761
-0.00932968
-0.0177745
-0.00952212
0.000103932
0.00389215
0.000487086
0.00242207
0.00275267
0.00341939
0.00421511
0.00359809
0.000553986
0.00260374
-0.000172489
0.00222644
-0.00878611
-0.00668627
-0.00113148
0.0012276
0.00129252
0.00254707
0.00168252
0.00513659
0.00468978
-0.00697701
-0.0237313
-0.00327357
0.00376694
0.00342555
0.00424642
0.00503024
-0.00187697
-0.00132093
0.00223772
0.00104212
-0.0122429
-5.21634e-05
0.00239148
-0.00846867
0.00372393
0.00214876
-0.0159682
0.00535917
0.00513525
-0.0149924
-0.00176342
0.00481813
0.00842366
0.00962553
0.00949107
0.0087127
0.00768489
0.00594835
0.0054184
-0.0124098
0.00667658
-0.0253671
-0.00881759
0.000835045
0.00621101
0.00838612
0.00748781
0.00853338
-0.000126208
0.000985834
0.000520761
0.00282872
0.00209325
0.00046093
0.000121661
-8.97179e-05
0.00199575
0.00147338
0.00120827
-0.00631731
-0.00220979
0.0022505
0.00106286
0.000903246
0.00218203
-0.00340041
-0.000638286
0.00114318
-0.00413859
-0.00635356
-0.0299444
-0.0177728
-0.0222944
-0.0239396
-0.021313
-0.0177232
-0.0226889
-0.0286053
-0.0253863
-0.0254415
-0.0296674
0.00356538
0.000208581
-1.03031e-05
-0.000128774
-0.000257639
-0.000220136
0.00115583
0.00222923
0.0007157
0.00634327
0.00394337
0.00249348
0.00142056
-0.0290216
0.00746387
0.00592963
0.00327208
0.00659558
0.00757936
-0.00291057
0.00682857
0.00462558
0.00537872
0.00461299
0.000109596
0.00466834
0.0065572
-0.00564962
-0.0128481
-0.0104893
-0.00850783
-0.017494
-0.00879935
7.44829e-05
0.00385798
0.000421159
0.00237345
0.00271068
0.0036147
0.00418076
0.00388405
0.000963973
0.00252945
0.000347378
0.00235301
-0.0082022
-0.00603163
-0.000592957
0.00116651
0.00124654
0.00247999
0.00205346
0.0052132
0.00469489
-0.00645431
-0.0239476
-0.00276598
0.0037379
0.00376328
0.00421132
0.0050179
-0.00137462
-0.000754258
0.00232807
0.0010303
-0.0115715
-7.19504e-05
0.00233581
-0.00755403
0.0036848
0.00211583
-0.0155996
0.00552277
0.00536614
-0.014528
-0.00247172
0.0041682
0.00790949
0.00923316
0.0092016
0.00851187
0.00755858
0.00590761
0.00539785
-0.0128886
0.00660313
-0.0241467
-0.0093249
0.000313836
0.00580076
0.00820894
0.00740879
0.00824733
-0.000117181
0.0010153
0.00054277
0.00259111
0.00202768
0.000483514
0.000135564
-8.12852e-05
0.00197089
0.00148832
0.0011698
-0.00724637
-0.00265183
0.00175771
0.000407781
0.000234761
0.00192299
-0.00463223
-0.00150968
0.00117214
-0.00484398
-0.00697125
-0.028042
-0.0171667
-0.0206844
-0.0218058
-0.0196468
-0.0165231
-0.0209887
-0.0268268
-0.0239056
-0.0237215
-0.0275963
0.00356483
0.000230164
7.67541e-07
-0.000115196
-0.000249408
-0.000213363
0.00116364
0.00223421
0.000741386
0.0063234
0.00395624
0.0025083
0.00143797
-0.0274038
0.00721276
0.00584416
0.00261065
0.00611039
0.00721933
-0.00369444
0.00666926
0.0046023
0.00524931
0.00420098
-0.000472034
0.0046672
0.00627308
-0.00685557
-0.0134054
-0.0112617
-0.0094143
-0.0174906
-0.00980426
8.65027e-05
0.00385677
0.000436343
0.00238891
0.00275335
0.00325687
0.00414616
0.00335245
0.000227304
0.00257595
-0.000305957
0.00224969
-0.00894792
-0.00695043
-0.0014818
0.00120175
0.00128939
0.00251809
0.00139446
0.00500913
0.00459711
-0.00717675
-0.0229013
-0.00362782
0.00377476
0.00341885
0.00420327
0.00501026
-0.00212237
-0.00159881
0.00219526
0.00103706
-0.0117793
-6.12231e-05
0.00236326
-0.00843894
0.00367236
0.00214557
-0.0160003
0.00518574
0.0049154
-0.0150206
0.625219
0.630359
0.637634
0.636663
0.634474
0.639992
0.632494
0.631399
0.63853
0.639517
0.527159
0.368732
0.202287
0.317657
0.0936462
0.474132
0.261517
0.421426
0.147303
0.580955
0.0982409
0.15283
0.208448
0.261923
0.312496
0.0452817
0.365544
0.585755
0.582676
0.18426
0.267058
0.181569
0.494273
0.135126
0.366686
0.393495
0.303492
0.114523
0.109621
0.241712
0.571089
0.497882
0.581447
0.408418
0.532889
0.289831
0.432478
0.526362
0.160871
0.092523
0.0842615
0.0421148
0.048905
0.0482501
0.0420997
0.0260828
0.0405335
0.0407298
0.0412623
0.0448069
0.0575407
0.0434939
0.440474
0.575181
0.542784
0.498423
0.633791
0.586435
0.594055
0.592936
0.0412439
0.423139
0.474102
0.586516
0.299322
0.202297
0.245815
0.144911
0.368883
0.27202
0.309831
0.150861
0.214897
0.344057
0.090686
0.0911887
0.0919045
0.0885676
0.131122
0.555357
0.457838
0.397683
0.0956054
0.508928
0.333783
0.240427
0.46615
0.421567
0.184952
0.25056
0.194602
0.345155
0.132635
0.0951035
0.139293
0.134421
0.0435738
0.558552
0.140548
0.541235
0.272016
0.385985
0.301001
0.142683
0.595367
0.587642
0.455503
0.225584
0.0986339
0.342347
0.606532
0.0821074
0.549254
0.326521
0.0933126
0.21667
0.0917182
0.530213
0.625399
0.630576
0.6378
0.636791
0.634679
0.640305
0.632733
0.631634
0.638663
0.639787
0.527338
0.368952
0.202605
0.317906
0.0937549
0.474326
0.261824
0.421629
0.147575
0.581092
0.0982585
0.152908
0.208535
0.261978
0.312512
0.0452792
0.365574
0.585654
0.582626
0.18448
0.267591
0.181668
0.494607
0.135062
0.367371
0.394044
0.304085
0.114347
0.109413
0.242002
0.571193
0.498354
0.581475
0.409123
0.533142
0.290249
0.433002
0.526613
0.160856
0.0922736
0.0840664
0.0420869
0.0488211
0.0481411
0.0420139
0.0261972
0.0401291
0.0403484
0.0412079
0.0447745
0.0573171
0.0432091
0.440526
0.575323
0.542916
0.498538
0.633932
0.586633
0.594225
0.593129
0.0410049
0.423494
0.474424
0.586676
0.299722
0.202631
0.24618
0.145125
0.369282
0.272174
0.309947
0.150936
0.215057
0.344239
0.0905707
0.0910496
0.0918606
0.0884582
0.131071
0.555474
0.458186
0.397988
0.095552
0.509314
0.334326
0.240833
0.466612
0.422076
0.185238
0.250809
0.194764
0.345546
0.132501
0.0949605
0.139351
0.134412
0.0434827
0.5588
0.140686
0.541537
0.272452
0.38652
0.301288
0.142725
0.595522
0.58752
0.456118
0.225963
0.0983905
0.342886
0.606694
0.0819659
0.549546
0.326873
0.0931864
0.217035
0.0916237
0.530475
0.62558
0.630791
0.637965
0.636917
0.634882
0.640619
0.632972
0.631868
0.638795
0.640059
0.527515
0.369166
0.202911
0.318148
0.0938299
0.474517
0.262122
0.421828
0.147831
0.581228
0.0982923
0.152998
0.208631
0.262042
0.312536
0.0452544
0.36561
0.585555
0.582572
0.184698
0.268119
0.181769
0.494949
0.135
0.368047
0.394603
0.30467
0.114173
0.109203
0.242297
0.571292
0.498817
0.581508
0.40982
0.533388
0.290674
0.433535
0.526873
0.16084
0.0920364
0.0838755
0.0420306
0.0487281
0.0480204
0.0418924
0.0262767
0.0397658
0.0399916
0.0411168
0.0447253
0.0570918
0.0429276
0.440584
0.575471
0.543054
0.498659
0.634073
0.586828
0.594393
0.593318
0.0407937
0.423842
0.47474
0.586833
0.300114
0.202952
0.246536
0.145321
0.369674
0.272336
0.31007
0.151021
0.215226
0.34443
0.0904339
0.090899
0.0917868
0.0883632
0.131024
0.555596
0.458543
0.3983
0.0955135
0.509694
0.33486
0.241232
0.467066
0.422578
0.185513
0.251066
0.194933
0.345946
0.132365
0.0948175
0.139403
0.134411
0.0433685
0.559043
0.140809
0.541832
0.27288
0.387046
0.301582
0.142776
0.595681
0.587399
0.456723
0.22634
0.0981549
0.343434
0.60686
0.0818283
0.549834
0.327218
0.0930714
0.217393
0.0915461
0.530733
-0.192172
-0.175435
-0.236043
-0.228317
-0.182437
-0.14911
-0.11935
-0.0901441
-0.13431
-0.133968
-0.170704
-0.186825
-0.091546
-0.161002
-0.133387
-0.225734
-0.242154
-0.0758346
-0.143017
-0.188342
-0.190035
-0.176614
-0.0893469
-0.117984
-0.11334
-0.124243
-0.210545
-0.213687
-0.210078
-0.250019
-0.168911
-0.194942
-0.226914
-0.17222
-0.212856
-0.242439
-0.140533
-0.147873
-0.177347
-0.189093
-0.0984412
-0.101638
-0.125371
-0.183569
-0.172436
-0.171779
-0.0981007
-0.12538
-0.10466
-0.134574
-0.194327
-0.154296
-0.165801
-0.193428
-0.239637
-0.200079
-0.232107
-0.195544
-0.224189
-0.174355
-0.194153
-0.227912
-0.182056
-0.210971
-0.180422
-0.24269
-0.229843
-0.17543
-0.0457084
-0.227423
-0.174734
-0.136586
-0.137999
-0.100173
-0.167289
-0.158949
-0.109698
-0.130296
-0.112438
-0.142733
-0.134307
-0.146619
-0.0896604
-0.196033
-0.19583
-0.194041
-0.147194
-0.196441
-0.143976
-0.0805578
-0.0766111
-0.0446073
-0.154356
-0.126516
-0.15195
-0.166252
-0.133748
-0.167589
-0.116339
-0.136301
-0.0799214
-0.098755
-0.0921082
-0.143135
-0.149416
-0.0985815
-0.0998495
-0.10088
-0.171936
-0.20081
-0.240253
-0.159257
-0.172199
-0.196509
-0.236285
-0.207296
-0.136646
-0.163195
-0.245208
-0.207456
-0.0983451
-0.0374162
-0.238109
-0.244794
-0.177711
-0.122982
-0.175915
-0.143327
-0.113983
-0.143757
-0.0916176
-0.101376
-0.108393
-0.0655345
-0.0978866
-0.120762
-0.0854154
-0.0515527
-0.161928
-0.238098
-0.23558
-0.194748
-0.121898
-0.116886
-0.0649873
-0.11854
-0.119081
-0.118716
-0.048043
-0.138585
-0.0948584
-0.16268
-0.096079
-0.129452
-0.0813455
-0.162065
-0.185199
-0.142631
-0.0671954
-0.0625634
-0.117187
-0.120314
-0.172842
-0.192864
-0.187695
-0.159952
-0.144055
-0.16301
-0.217677
-0.193106
-0.186141
-0.209838
-0.221582
-0.186214
-0.188731
-0.153376
-0.207276
-0.160504
-0.156007
-0.164008
-0.139602
-0.108508
-0.192857
-0.162142
-0.208759
-0.240922
-0.210267
-0.225693
-0.17093
-0.0377334
-0.150374
-0.112855
-0.114312
-0.0997179
-0.231269
-0.198201
-0.171893
-0.171709
-0.189212
-0.178251
-0.239885
-0.179617
-0.172696
-0.170784
-0.152199
-0.228335
-0.177732
-0.175386
-0.181618
-0.112248
-0.122779
-0.15054
-0.175063
-0.118953
-0.177465
-0.230567
-0.185195
-0.177247
-0.125966
-0.173811
-0.142947
-0.120834
-0.141211
-0.1488
-0.0986081
-0.125011
-0.18281
-0.173744
-0.157604
-0.198272
-0.186746
-0.146782
-0.120983
-0.141503
-0.118062
-0.171586
-0.117855
-0.176911
-0.0908642
-0.15555
-0.191024
-0.0502526
-0.136223
-0.146512
-0.104356
-0.15503
-0.139566
-0.17896
-0.172865
-0.106339
-0.0673191
-0.17705
-0.176134
-0.120186
-0.124972
-0.120462
-0.174253
-0.228781
-0.176142
-0.158985
-0.114311
-0.213548
-0.134393
-0.150528
-0.251809
-0.253698
-0.101846
-0.246107
-0.154875
-0.105191
-0.195175
-0.193082
-0.200088
-0.173338
-0.140806
-0.104511
-0.13033
-0.174168
-0.122414
-0.045096
-0.145412
-0.0915884
-0.118404
-0.106089
-0.118646
-0.173811
-0.228658
-0.175063
-0.0486722
-0.143755
-0.117589
-0.163463
-0.188698
-0.218956
-0.174132
-0.177897
-0.122243
-0.174443
-0.209579
-0.186796
-0.0816279
-0.0382041
-0.0436928
-0.0771298
-0.0447846
-0.0415134
-0.0385333
-0.0690834
-0.212376
-0.200903
-0.201275
-0.252779
-0.164119
-0.204314
-0.231498
-0.183572
-0.19733
-0.169992
-0.124454
-0.15381
-0.127239
-0.116671
-0.142504
-0.104808
-0.138829
-0.128013
-0.0799604
-0.132259
-0.129087
-0.168066
-0.167727
-0.166397
-0.207269
-0.183197
-0.118435
-0.159241
-0.158665
-0.0787744
-0.127199
-0.0866522
-0.126108
-0.184539
-0.0407774
-0.0708996
-0.0600737
-0.0809469
-0.12873
-0.190883
-0.205798
-0.210512
-0.106898
-0.1635
-0.184748
-0.153588
-0.15276
-0.0877904
-0.0836982
-0.0874982
-0.142995
-0.122933
-0.142395
-0.150505
-0.108777
-0.121339
-0.164736
-0.134692
-0.179332
-0.161871
-0.155468
-0.0534821
-0.0675345
-0.150855
-0.14381
-0.195127
-0.172666
-0.1943
-0.106958
-0.0738058
-0.123882
-0.0787102
-0.0858878
-0.099899
-0.121369
-0.120375
-0.171367
-0.115333
-0.175282
-0.121611
-0.154164
-0.146359
-0.179761
-0.109721
-0.161045
-0.133165
-0.119907
-0.0573
-0.120906
-0.122791
-0.148501
-0.0954185
-0.120388
-0.193567
-0.145794
-0.151227
-0.18729
-0.09924
-0.183683
-0.193191
-0.0454535
-0.049735
-0.152255
-0.171839
-0.130795
-0.213756
-0.253318
-0.203791
-0.19347
-0.142454
-0.12562
-0.16811
-0.23414
-0.199327
-0.177119
-0.244055
-0.248664
-0.0846679
-0.126622
-0.0750781
-0.123752
-0.0993916
-0.0921963
-0.0734189
-0.0720196
-0.081327
-0.178426
-0.12154
-0.177663
-0.172654
-0.175127
-0.119675
-0.149723
-0.115601
-0.200159
-0.175916
-0.169298
-0.173462
-0.179759
-0.118951
-0.121486
-0.111114
-0.171634
-0.121493
-0.0492441
-0.0614508
-0.0454182
-0.130984
-0.0831888
-0.207841
-0.172849
-0.179075
-0.178529
-0.18655
-0.247597
-0.248994
-0.147986
-0.173041
-0.116386
-0.110776
-0.115153
-0.0661665
-0.121178
-0.127094
-0.206362
-0.231999
-0.241931
-0.240916
-0.171899
-0.176291
-0.122216
-0.176705
-0.115182
-0.116725
-0.0476118
-0.205862
-0.208331
-0.196196
-0.202824
-0.15217
-0.179305
-0.137492
-0.080075
-0.12968
-0.137684
-0.213189
-0.167342
-0.252684
-0.199758
-0.149863
-0.104142
-0.0992718
-0.179101
-0.154678
-0.196638
-0.188835
-0.188521
-0.146083
-0.193499
-0.20035
-0.0454121
-0.0406285
-0.0774745
-0.157358
-0.180154
-0.212024
-0.177368
-0.186558
-0.18673
-0.211819
-0.179877
-0.153017
-0.154763
-0.118004
-0.150342
-0.176386
-0.206358
-0.167222
-0.206817
-0.179454
-0.243705
-0.24239
-0.225316
-0.231778
-0.176928
-0.171062
-0.175879
-0.121946
-0.118968
-0.1224
-0.123879
-0.119831
-0.125153
-0.0636849
-0.0617151
-0.0917414
-0.0470461
-0.123428
-0.120418
-0.065369
-0.0731634
-0.084203
-0.118101
-0.11588
-0.109871
-0.0482997
-0.0457787
-0.0449176
-0.111011
-0.0812286
-0.100489
-0.0503733
-0.0520119
-0.247127
-0.251259
-0.179967
-0.23554
-0.149073
-0.175812
-0.114639
-0.178191
-0.0679216
-0.118622
-0.0638363
-0.0492979
-0.239039
-0.172927
-0.182672
-0.244926
-0.120853
-0.124766
-0.118198
-0.0407759
-0.0932172
-0.0676456
-0.0567702
-0.0692549
-0.118652
-0.0718913
-0.0720822
-0.075531
-0.178985
-0.154269
-0.203337
-0.181578
-0.179606
-0.122337
-0.243422
-0.17687
-0.144852
-0.179941
-0.123378
-0.185982
-0.198974
-0.101352
-0.093377
-0.12162
-0.11298
-0.180553
-0.0674018
-0.202272
-0.23485
-0.175104
-0.237939
-0.147751
-0.170584
-0.173197
-0.226751
-0.176921
-0.226412
-0.23931
-0.123552
-0.100536
-0.167297
-0.186477
-0.183711
-0.169735
-0.122936
-0.152368
-0.171029
-0.115646
-0.123081
-0.179586
-0.183304
-0.128458
-0.193771
-0.238865
-0.243471
-0.235013
-0.12242
-0.175878
-0.119832
-0.122043
-0.120318
-0.121227
-0.0658932
-0.109567
-0.199322
-0.162364
-0.173368
-0.167351
-0.224097
-0.2359
-0.174188
-0.124605
-0.165758
-0.172963
-0.23741
-0.148108
-0.190866
-0.243391
-0.226379
-0.0847521
-0.20585
-0.227709
-0.173986
-0.225413
-0.204991
-0.195454
-0.16412
-0.212515
-0.209279
-0.209525
-0.158189
-0.242981
-0.24955
-0.246409
-0.098247
-0.126663
-0.0696275
-0.0636242
-0.0548445
-0.122633
-0.12088
-0.118685
-0.0654224
-0.0654506
-0.0626829
-0.112292
-0.144302
-0.104581
-0.122953
-0.117852
-0.0533058
-0.177116
-0.11871
-0.15117
-0.250302
-0.20524
-0.206573
-0.214775
-0.0834117
-0.158029
-0.147171
-0.237277
-0.185031
-0.206338
-0.242021
-0.240407
-0.176858
-0.17504
-0.244479
-0.175423
-0.148589
-0.14909
-0.148647
-0.115097
-0.0961236
-0.195625
-0.189468
-0.236068
-0.239728
-0.202885
-0.0418762
-0.171637
-0.241738
-0.238074
-0.22998
-0.169651
-0.21444
-0.170773
-0.168423
-0.237252
-0.0614582
-0.0909681
-0.0595434
-0.0642494
-0.0498063
-0.113313
-0.162503
-0.0868895
-0.159299
-0.196222
-0.213452
-0.164735
-0.226996
-0.17304
-0.186905
-0.1662
-0.169965
-0.222766
-0.173673
-0.154441
-0.142002
-0.110187
-0.139256
-0.174162
-0.119354
-0.12864
-0.173685
-0.194667
-0.192894
-0.19306
-0.195112
-0.16783
-0.14338
-0.157756
-0.124944
-0.117808
-0.123148
-0.200026
-0.147597
-0.171791
-0.128797
-0.209573
-0.0841238
-0.161843
-0.132511
-0.123323
-0.165832
-0.122013
-0.127419
-0.144099
-0.155367
-0.185685
-0.0910313
-0.134848
-0.113357
-0.0842065
-0.076746
-0.119299
-0.0909628
-0.0402436
-0.0821522
-0.101983
-0.13086
-0.112733
-0.121244
-0.0797427
-0.0812192
-0.0664995
-0.158281
-0.184126
-0.156731
-0.132813
-0.166185
-0.215076
-0.186717
-0.169618
-0.219045
-0.15492
-0.20434
-0.135551
-0.198218
-0.242387
-0.143929
-0.127073
-0.226337
-0.174224
-0.173664
-0.0694244
-0.122971
-0.15293
-0.155841
-0.102638
-0.177581
-0.194254
-0.193188
-0.232098
-0.18425
-0.125311
-0.189442
-0.199668
-0.162603
-0.166421
-0.122838
-0.120922
-0.100197
-0.163052
-0.19595
-0.18167
-0.203418
-0.0492115
-0.221756
-0.160597
-0.159397
-0.0954216
-0.0984447
-0.250182
-0.118071
-0.0583164
-0.100194
-0.199964
-0.22758
-0.170376
-0.114546
-0.115718
-0.0558771
-0.158744
-0.11826
-0.0911197
-0.147677
-0.161735
-0.187495
-0.203652
-0.156661
-0.144965
-0.192508
-0.14538
-0.173241
-0.102024
-0.148658
-0.117056
-0.100584
-0.244464
-0.170022
-0.130536
-0.192882
-0.207199
-0.0908383
-0.0918671
-0.0581919
-0.0613295
-0.0563386
-0.0448365
-0.201693
-0.212063
-0.249966
-0.19202
-0.249438
-0.213538
-0.210328
-0.181067
-0.251307
-0.229845
-0.143694
-0.200043
-0.184143
-0.172777
-0.122516
-0.173847
-0.05435
-0.0814642
-0.0579356
-0.0587782
-0.0595401
-0.121766
-0.0636209
-0.122373
-0.0428885
-0.047009
-0.0799531
-0.216507
-0.167755
-0.246738
-0.241998
-0.239673
-0.0750304
-0.124521
-0.121524
-0.0748522
-0.23913
-0.101553
-0.0826575
-0.111133
-0.168967
-0.169449
-0.129656
-0.127031
-0.127325
-0.129599
-0.132583
-0.126513
-0.0867696
-0.112679
-0.0765872
-0.144517
-0.215971
-0.165852
-0.0871133
-0.0926474
-0.0529459
-0.115789
-0.0715003
-0.0513434
-0.0549591
-0.184917
-0.121818
-0.121721
-0.101222
-0.235065
-0.240773
-0.232183
-0.138353
-0.133384
-0.152264
-0.0759064
-0.14808
-0.123583
-0.0918434
-0.0887598
-0.129173
-0.0889635
-0.119532
-0.201436
-0.184224
-0.22739
-0.215524
-0.173935
-0.215905
-0.173056
-0.228996
-0.227025
-0.174959
-0.231477
-0.229278
-0.229765
-0.181219
-0.174008
-0.132711
-0.104772
-0.182164
-0.111876
-0.162134
-0.126009
-0.0779643
-0.121524
-0.127512
-0.215397
-0.105325
-0.125844
-0.0818668
-0.086288
-0.0813919
-0.0446091
-0.119873
-0.0548664
-0.0918424
-0.0914703
-0.100526
-0.136221
-0.100618
-0.203258
-0.150511
-0.0784342
-0.0867399
-0.208575
-0.21978
-0.171251
-0.169175
-0.211571
-0.126947
-0.10542
-0.128564
-0.0876194
-0.166647
-0.0857694
-0.0686831
-0.195627
-0.174904
-0.231804
-0.213694
-0.174963
-0.0511801
-0.214348
-0.162119
-0.176651
-0.0571306
-0.11416
-0.112572
-0.139245
-0.200155
-0.145246
-0.191396
-0.23743
-0.173716
-0.0470728
-0.038343
-0.0668309
-0.124433
-0.175372
-0.194918
-0.246323
-0.197096
-0.166108
-0.163567
-0.126506
-0.214102
-0.210484
-0.213509
-0.126139
-0.124927
-0.0756899
-0.064146
-0.176201
-0.198326
-0.206329
-0.178634
-0.238413
-0.225004
-0.248469
-0.241572
-0.232458
-0.0494533
-0.230438
-0.215656
-0.102617
-0.136938
-0.141315
-0.152155
-0.173912
-0.214538
-0.125822
-0.130185
-0.170103
-0.191591
-0.19334
-0.0806204
-0.0777239
-0.084773
-0.221443
-0.126747
-0.0784085
-0.0801683
-0.10465
-0.1486
-0.200464
-0.197516
-0.229603
-0.181567
-0.240413
-0.0850937
-0.19974
-0.159393
-0.122367
-0.0498245
-0.0649634
-0.0836313
-0.0460599
-0.188313
-0.172785
-0.218405
-0.223728
-0.125919
-0.168862
-0.210892
-0.171596
-0.216404
-0.0706259
-0.175287
-0.123404
-0.174839
-0.17493
-0.102346
-0.125933
-0.1254
-0.0752648
-0.0618241
-0.116054
-0.153613
-0.100887
-0.140309
-0.141735
-0.180011
-0.168797
-0.157239
-0.114805
-0.155884
-0.125201
-0.13125
-0.0671336
-0.171082
-0.194995
-0.226712
-0.1758
-0.169079
-0.215634
-0.126836
-0.218379
-0.221396
-0.194185
-0.121594
-0.175011
-0.172439
-0.237692
-0.204322
-0.233098
-0.237068
-0.232748
-0.175702
-0.122634
-0.174376
-0.174356
-0.176722
-0.226894
-0.124733
-0.0958009
-0.0803505
-0.055086
-0.109012
-0.0513833
-0.0614506
-0.14561
-0.19397
-0.117146
-0.174442
-0.119156
-0.142605
-0.145351
-0.159552
-0.167178
-0.0951994
-0.0741192
-0.103817
-0.17938
-0.113863
-0.0955686
-0.140923
-0.188617
-0.174454
-0.116517
-0.240116
-0.236657
-0.229376
-0.191269
-0.192143
-0.188304
-0.126778
-0.170783
-0.137082
-0.102871
-0.0928165
-0.108441
-0.22328
-0.174481
-0.0660717
-0.0538472
-0.0504844
-0.120608
-0.230875
-0.242191
-0.181344
-0.176201
-0.248488
-0.0527334
-0.240051
-0.244885
-0.0890557
-0.0897143
-0.163946
-0.198272
-0.244019
-0.202951
-0.179885
-0.104866
-0.0972757
-0.0981483
-0.148677
-0.180532
-0.213043
-0.134471
-0.143902
-0.138007
-0.129019
-0.242556
-0.191328
-0.24249
-0.242783
-0.24265
-0.205571
-0.176937
-0.172425
-0.112022
-0.183007
-0.0440272
-0.0321084
-0.0449753
-0.0556618
-0.188067
-0.121181
-0.119721
-0.181099
-0.167795
-0.127184
-0.181469
-0.0499869
-0.0847111
-0.131134
-0.0874405
-0.0511935
-0.167799
-0.130476
-0.123867
-0.0808861
-0.0798445
-0.103757
-0.0554284
-0.166221
-0.122964
-0.125704
-0.0712979
-0.0827178
-0.140826
-0.114277
-0.0963607
-0.151068
-0.093094
-0.180496
-0.0881371
-0.137038
-0.0850936
-0.133679
-0.083582
-0.117639
-0.114201
-0.047173
-0.064491
-0.0879762
-0.0663502
-0.118817
-0.123967
-0.0677831
-0.121875
-0.0704594
-0.177123
-0.120437
-0.176332
-0.192716
-0.187749
-0.130748
-0.178356
-0.23486
-0.238943
-0.230168
-0.206028
-0.241375
-0.17805
-0.117888
-0.119815
-0.0652103
-0.129243
-0.18527
-0.243134
-0.204778
-0.233392
-0.242864
-0.209777
-0.0882504
-0.239056
-0.235787
-0.20192
-0.174022
-0.233027
-0.198721
-0.195775
-0.174508
-0.127681
-0.0777472
-0.0876391
-0.237909
-0.228449
-0.237428
-0.0909481
-0.0523812
-0.0596895
-0.121067
-0.115326
-0.0582087
-0.120187
-0.169261
-0.155507
-0.215994
-0.149095
-0.212471
-0.127776
-0.166079
-0.0524172
-0.11181
-0.150252
-0.180773
-0.0896645
-0.216041
-0.219305
-0.186803
-0.191936
-0.105261
-0.142505
-0.106058
-0.0973158
-0.117396
-0.0759189
-0.247941
-0.0784223
-0.0760626
-0.107212
-0.118969
-0.110244
-0.138391
-0.11806
-0.206611
-0.235891
-0.247285
-0.208559
-0.117602
-0.199168
-0.251064
-0.24371
-0.210539
-0.056093
-0.0997974
-0.199183
-0.166603
-0.120517
-0.156295
-0.200391
-0.200983
-0.168497
-0.207784
-0.208224
-0.208423
-0.0874159
-0.0916157
-0.211135
-0.204793
-0.140823
-0.189035
-0.180341
-0.177582
-0.099137
-0.129303
-0.134706
-0.0913436
-0.122893
-0.0904348
-0.123072
-0.186427
-0.183399
-0.0736033
-0.0490835
-0.0420156
-0.0803264
-0.0543623
-0.0626362
-0.123539
-0.176936
-0.176688
-0.123383
-0.229975
-0.22921
-0.227042
-0.0776429
-0.0784601
-0.125354
-0.167233
-0.210756
-0.166371
-0.16853
-0.206691
-0.129083
-0.129351
-0.149364
-0.147324
-0.178048
-0.0570693
-0.115014
-0.121762
-0.0904208
-0.177028
-0.178058
-0.181333
-0.184704
-0.176007
-0.120661
-0.203337
-0.0633986
-0.115389
-0.233126
-0.229884
-0.246173
-0.178569
-0.140684
-0.172056
-0.0603618
-0.0655923
-0.177059
-0.231016
-0.175046
-0.101677
-0.243897
-0.240758
-0.0958872
-0.117626
-0.124194
-0.0707251
-0.0430008
-0.0593532
-0.120291
-0.17316
-0.0724265
-0.234141
-0.231568
-0.189951
-0.204452
-0.214488
-0.197318
-0.251844
-0.250365
-0.0588173
-0.173794
-0.239467
-0.202943
-0.178701
-0.177177
-0.24228
-0.223085
-0.173159
-0.115986
-0.0926905
-0.124342
-0.0538001
-0.175893
-0.150113
-0.0405558
-0.0933751
-0.0708691
-0.0418638
-0.194532
-0.172037
-0.169593
-0.221115
-0.222339
-0.17519
-0.218491
-0.230809
-0.174872
-0.140195
-0.171858
-0.232281
-0.172321
-0.176344
-0.218798
-0.172698
-0.231174
-0.0932086
-0.0522234
-0.157199
-0.179381
-0.120519
-0.230356
-0.170475
-0.108305
-0.110135
-0.0506555
-0.11379
-0.044545
-0.0508252
-0.116377
-0.173636
-0.0661497
-0.110703
-0.0698531
-0.0532339
-0.0511235
-0.0559287
-0.049622
-0.0517466
-0.0523569
-0.0499586
-0.0556185
-0.200138
-0.251534
-0.224138
-0.225326
-0.242352
-0.0636142
-0.0622888
-0.099484
-0.0477842
-0.0511091
-0.128021
-0.0616543
-0.227137
-0.242346
-0.0667425
-0.0683242
-0.0567155
-0.238945
-0.0555297
-0.0691084
-0.0451072
-0.0912732
-0.118831
-0.121151
-0.174338
-0.118383
-0.149645
-0.194574
-0.172528
-0.173637
-0.124768
-0.128753
-0.17317
-0.126392
-0.116367
-0.0652794
-0.122213
-0.114784
-0.124617
-0.117717
-0.187006
-0.0597542
-0.0548726
-0.0504882
-0.23657
-0.240772
-0.171027
-0.222559
-0.236683
-0.128409
-0.0843053
-0.0488516
-0.0640728
-0.0453865
-0.119257
-0.200492
-0.0790951
-0.112294
-0.153917
-0.0646784
-0.0595616
-0.0645546
-0.0615606
-0.115321
-0.131446
-0.25197
-0.120256
-0.239436
-0.236482
-0.0577966
-0.0644396
-0.0542827
-0.101132
-0.139277
-0.179463
-0.079165
-0.062603
-0.205384
-0.173877
-0.254675
-0.20276
-0.0642959
-0.0820465
-0.0841793
-0.245307
-0.252612
-0.244616
-0.20874
-0.121741
-0.173424
-0.174278
-0.222167
-0.175753
-0.174967
-0.219713
-0.049405
-0.0701892
-0.149223
-0.0867965
-0.0828
-0.0668378
-0.0679512
-0.121371
-0.0487554
-0.124755
-0.231352
-0.241175
-0.23786
-0.138754
-0.183126
-0.176645
-0.228499
-0.22903
-0.175429
-0.181381
-0.119897
-0.170268
-0.239261
-0.232615
-0.236082
-0.173716
-0.174099
-0.234169
-0.1749
-0.118204
-0.117102
-0.0528571
-0.0532518
-0.048426
-0.0661144
-0.119142
-0.172412
-0.12034
-0.116781
-0.126025
-0.118177
-0.0528688
-0.0667836
-0.174755
-0.125354
-0.206706
-0.244305
-0.0384439
-0.0542968
-0.0560579
-0.0451646
-0.144508
-0.0812291
-0.131142
-0.18306
-0.18723
-0.193386
-0.186087
-0.15442
-0.143225
-0.2429
-0.199003
-0.0954705
-0.123671
-0.150647
-0.18862
-0.207995
-0.204983
-0.247882
-0.239707
-0.248137
-0.231395
-0.250204
-0.0686054
-0.219931
-0.134438
-0.197177
-0.150644
-0.212487
-0.0583819
-0.254453
-0.219935
-0.237146
-0.250971
-0.23196
-0.24991
-0.242489
-0.125408
-0.20378
-0.170876
-0.170338
-0.208925
-0.219838
-0.0461267
-0.121131
-0.0607035
-0.0651736
-0.0499332
-0.177435
-0.0453135
-0.0644923
-0.118144
-0.123516
-0.0687109
-0.178358
-0.220106
-0.221694
-0.1737
-0.178208
-0.125645
-0.123881
-0.125269
-0.172516
-0.125619
-0.127836
-0.0660341
-0.127774
-0.167707
-0.170485
-0.126533
-0.220841
-0.222936
-0.222642
-0.223251
-0.17606
-0.226864
-0.176302
-0.174006
-0.246529
-0.118886
-0.0558153
-0.0604416
-0.171272
-0.176372
-0.125702
-0.123019
-0.0584172
-0.0861549
-0.228557
-0.0596601
-0.175042
-0.247617
-0.0450142
-0.0467323
-0.0803917
-0.052523
-0.124985
-0.0540788
-0.0684464
-0.22636
-0.0666264
-0.0857907
-0.174563
-0.222114
-0.174319
-0.22307
-0.0734464
-0.0648094
-0.120413
-0.0560771
-0.126928
-0.177408
-0.178009
-0.228888
-0.239937
-0.219279
-0.221741
-0.254302
-0.171601
-0.180696
-0.0615763
-0.0688395
-0.0667081
-0.244202
-0.116055
-0.0869415
-0.0659158
-0.230303
-0.0594977
-0.0707952
-0.182647
-0.199778
-0.126363
-0.123205
-0.0786667
-0.0556721
-0.235578
-0.236128
-0.251349
-0.0500984
-0.175713
-0.219142
-0.173515
-0.221677
-0.227912
-0.178671
-0.177979
-0.121859
-0.128418
-0.1286
-0.0851531
-0.191429
-0.185139
-0.219661
-0.169133
-0.0861307
-0.137429
-0.101708
-0.237395
-0.247271
-0.228134
-0.250485
-0.110252
-0.0395374
-0.223944
-0.222798
-0.229404
-0.229659
-0.214639
-0.219953
-0.0610484
-0.117988
-0.0655734
-0.0499218
-0.0447724
-0.077797
-0.247195
-0.23195
-0.121598
-0.0560819
-0.124821
-0.124643
-0.124415
-0.0712525
-0.0728038
-0.0620539
-0.124116
-0.0831723
-0.0825591
-0.127798
-0.0850841
-0.234074
-0.191458
-0.208762
-0.0627142
-0.0670144
-0.065349
-0.0660432
-0.0575565
-0.202908
-0.231682
-0.083323
-0.130773
-0.081748
-0.045362
-0.0456966
-0.0401874
-0.0480514
-0.0396089
-0.0985071
-0.0465293
-0.215805
-0.230912
-0.245005
-0.251662
-0.227071
-0.231937
-0.0771327
-0.177622
-0.232786
-0.211128
-0.0847291
-0.0759701
-0.0910331
-0.242328
-0.066411
-0.0613624
-0.0393062
-0.229656
-0.0782731
-0.0505112
-0.0629979
-0.0479732
-0.0604772
-0.0437694
-0.224718
-0.215638
-0.0582744
-0.243068
-0.246434
-0.245555
-0.242935
-0.227411
-0.145536
-0.0794344
-0.240296
-0.221049
-0.211887
-0.216532
-0.0465578
-0.0432512
-0.0464327
-0.0442331
-0.0659739
-0.239923
-0.232521
-0.128244
-0.0805953
-0.0947115
-0.129435
-0.0796597
-0.219639
-0.171701
-0.236468
-0.0631274
-0.10465
-0.0750805
-0.0628808
-0.25034
-0.24386
-0.0785283
-0.179004
-0.250042
-0.249114
-0.234916
-0.0859442
-0.0422993
-0.120712
-0.241284
-0.246829
-0.249328
-0.063767
-0.0612001
-0.060189
-0.103146
-0.252463
-0.227834
-0.118616
-0.0543358
-0.192657
-0.0562651
-0.0695179
-0.0575472
-0.0685708
-0.12264
-0.118443
-0.0552654
-0.0760611
-0.0569195
-0.124581
-0.0926967
-0.0676702
-0.0730739
-0.0517972
-0.0504745
-0.0690178
-0.0682928
-0.116971
-0.234824
-0.125606
-0.0845933
-0.0639958
-0.224375
-0.218076
-0.191343
-0.204317
-0.227162
-0.0837974
-0.0916009
-0.206269
-0.250339
-0.0484826
-0.171264
-0.21821
-0.21696
-0.0653097
-0.0422567
-0.0579656
-0.248574
-0.226555
-0.0527519
-0.0496324
-0.234103
-0.0656405
-0.0524956
-0.0647481
-0.245625
-0.039895
-0.227511
-0.0640613
-0.17005
-0.140664
-0.130268
-0.229967
-0.246083
-0.224781
-0.230022
-0.0713436
-0.240899
-0.236755
-0.236091
-0.246028
-0.0427776
-0.065355
-0.099498
-0.178688
-0.197571
-0.0582897
-0.121485
-0.116932
-0.0741639
-0.17049
-0.177626
-0.17577
-0.236483
-0.235169
-0.245679
-0.238959
-0.252565
-0.0596561
-0.0642222
-0.0605306
-0.0584731
-0.218886
-0.0563519
-0.173344
-0.062304
-0.0597309
-0.203357
-0.0761638
-0.0502238
-0.0843561
-0.209606
-0.0735245
-0.073992
-0.0617564
-0.0740578
-0.0548022
-0.0505107
-0.117996
-0.103241
-0.0602105
-0.0468349
-0.227341
-0.228938
-0.0598759
-0.0782384
-0.227877
-0.0783356
-0.0671819
-0.0535207
-0.0409068
-0.0622398
-0.0768008
-0.0883184
-0.247507
-0.0708226
-0.0541768
-0.0521872
-0.0414478
-0.0421178
-0.216373
-0.215975
-0.240735
-0.242828
-0.245927
-0.246718
-0.0510104
-0.213751
-0.14485
-0.0557005
-0.107216
-0.0957116
-0.0449141
-0.0470304
-0.182168
-0.228495
-0.237668
-0.0589317
-0.230013
-0.240551
-0.0530471
-0.0457586
-0.213745
-0.0543558
-0.23522
-0.240035
-0.229049
-0.237401
-0.0532448
-0.0529572
-0.0393644
-0.08621
-0.24426
-0.236836
-0.134403
-0.0606709
-0.251529
-0.227719
-0.221208
-0.0764412
-0.0984235
-0.134262
-0.0840878
-0.0714334
-0.0953075
-0.24344
-0.135049
-0.0488365
-0.0688637
-0.0540535
-0.0436234
-0.244363
-0.0649938
-0.246626
-0.117474
-0.24063
-0.238941
-0.0740669
-0.19604
-0.238584
-0.0405674
-0.0509375
-0.055595
-0.214025
-0.212474
-0.233208
-0.232838
-0.229463
-0.236131
-0.0756278
-0.236545
-0.23572
-0.0497096
-0.0443027
-0.226367
-0.231885
-0.240208
-0.05003
-0.239422
-0.0566615
-0.0575135
-0.243323
-0.236031
-0.0489811
-0.100213
-0.0648633
-0.0522745
-0.0962921
-0.136369
-0.0802328
-0.0442471
-0.0752598
-0.104737
-0.0553489
-0.0658463
-0.118072
-0.232042
-0.0457543
-0.082107
-0.168146
-0.171324
-0.205317
-0.227958
-0.224226
-0.0667596
-0.0615415
-0.229135
-0.215133
-0.179428
-0.1333
-0.215423
-0.196514
-0.176117
-0.0551462
-0.223875
-0.090743
-0.214031
-0.0999822
-0.0736461
-0.0969827
-0.0434122
-0.235497
-0.223482
-0.0507171
-0.13816
-0.0488634
-0.241533
-0.045341
-0.0681727
-0.10131
-0.143709
-0.101644
-0.243634
-0.24669
-0.0568503
-0.237378
-0.118301
-0.243058
-0.253004
-0.153773
-0.202915
-0.0458417
-0.0691495
-0.0839539
-0.0866013
-0.120181
-0.0600707
-0.0690785
-0.250139
-0.0653907
-0.236226
-0.168855
-0.0590715
-0.0803273
-0.0531302
-0.0571275
-0.05035
-0.0489527
-0.0504936
-0.0445518
-0.249363
-0.248282
-0.233446
-0.252622
-0.236466
-0.210172
-0.234173
-0.198759
-0.241249
-0.244738
-0.04709
-0.0482212
-0.240223
-0.202063
-0.0433982
-0.0539128
-0.049726
-0.0500725
-0.224283
-0.128664
-0.236878
-0.036473
-0.246326
-0.24452
-0.244655
-0.0736445
-0.097583
-0.0743712
-0.0840123
-0.0412058
-0.0461173
-0.0422094
-0.248329
-0.04642
-0.0484361
-0.207715
-0.041731
-0.0643683
-0.0571925
-0.0741142
-0.1219
-0.231869
-0.0652478
-0.0778408
-0.0483075
-0.0868813
-0.245964
-0.0628261
-0.211809
-0.249761
-0.0449532
-0.0588662
-0.232197
-0.237902
-0.242375
-0.231696
-0.240917
-0.0500911
-0.048822
-0.0493571
-0.0743213
-0.0648083
-0.244784
-0.0692579
-0.0528837
-0.099219
-0.178795
-0.0527317
-0.176494
-0.238931
-0.225022
-0.227784
-0.249354
-0.0424144
-0.0402321
-0.0639635
-0.119534
-0.0788006
-0.086983
-0.0475843
-0.0435877
-0.0867652
-0.0755089
-0.0687344
-0.0458673
-0.0434866
-0.245269
-0.0721352
-0.0710147
-0.0921463
-0.0587592
-0.241681
-0.233125
-0.251522
-0.246425
-0.251877
-0.0907119
-0.0496791
-0.0653319
-0.0662995
-0.0477048
-0.0876444
-0.0655053
-0.233711
-0.0482148
-0.0927228
-0.0463629
-0.0663937
-0.0494174
-0.0659718
-0.0693607
-0.0532367
-0.14799
-0.249891
-0.252351
-0.054963
-0.246653
-0.240182
-0.175395
-0.174989
-0.239134
-0.238922
-0.231365
-0.0547419
-0.0429604
-0.0543175
-0.25158
-0.233554
-0.244488
-0.211117
-0.237618
-0.238545
-0.230009
-0.17702
-0.240814
-0.0447081
-0.246368
-0.219791
-0.224924
-0.0771521
-0.249554
-0.227674
-0.227815
-0.212182
-0.210955
-0.230837
-0.247308
-0.249543
-0.223559
-0.0667258
-0.106738
-0.193695
-0.151846
-0.0750662
-0.0876843
-0.0948922
-0.22346
-0.123884
-0.230302
-0.236662
-0.211274
-0.179155
-0.0706473
-0.087038
-0.0721896
-0.0766777
-0.212662
-0.239352
-0.0519685
-0.125097
-0.226837
-0.22779
-0.235661
-0.0743744
-0.0592656
-0.0714052
-0.0912899
-0.214677
-0.233899
-0.0673948
-0.13976
-0.254636
-0.223951
-0.0537275
-0.0488348
-0.050357
-0.224471
-0.247679
-0.057101
-0.0887007
-0.0751819
-0.0750647
-0.0775884
-0.103649
-0.213491
-0.209126
-0.215965
-0.218966
-0.0732102
-0.0635455
-0.0636205
-0.0867176
-0.0662544
-0.0941687
-0.0494957
-0.0716254
-0.0705551
-0.0719251
-0.213062
-0.251991
-0.230503
-0.0707916
-0.0609233
-0.0699525
-0.0992293
-0.0709122
-0.0644728
-0.0425794
-0.0665202
-0.0713595
-0.0538423
-0.0558223
-0.0356807
-0.239894
-0.251768
-0.0416556
-0.0910644
-0.0675531
-0.128757
-0.0492265
-0.0847291
-0.227384
-0.0733956
-0.0506234
-0.0516343
-0.0509848
-0.0721664
-0.231322
-0.0359488
-0.0549248
-0.104732
-0.236999
-0.212324
-0.0675362
-0.0782789
-0.0938721
-0.0579381
-0.0545163
-0.24087
-0.242381
-0.0705977
-0.0743058
-0.0670507
-0.0791419
-0.21317
-0.226601
-0.0739198
-0.0742669
-0.142705
-0.0740578
-0.071193
-0.0716343
-0.0735853
-0.065066
-0.0990976
-0.0728909
-0.0788352
-0.0504126
-0.0492358
-0.0530723

SCALARS u_y double 1
LOOKUP_TABLE  table2
0
0
0.00984104
-0.00447475
-0.00343832
0.000906442
0.003429
-0.00786411
-0.00352661
-0.00123355
0.00137096
0.0106349
0
0
-0.064602
-0.0699345
-0.0424787
-0.0117339
-0.0134475
-0.0550237
-0.0223852
-0.0130022
-0.0428779
-0.0700535
-0.0647907
-0.0165061
-0.0550498
-0.0234635
-0.0232108
-0.0256562
-0.00527019
-0.00282976
-0.000974281
-0.0213535
-0.000981421
-0.021348
0.00158694
-0.0179542
0.00120456
-0.0176388
-0.0256629
-0.00526491
0.00296735
0.0105348
0
0
0
0
0
0
0
0
0
0
0
0
0
0
0
0
0
0
0
0
0
0
0.00687754
0.00459556
0.00310323
0.00212942
0.00171099
0.00166265
0.00190992
0.00220152
0.00223
0.00224625
0.00228517
0.0016538
0.000444379
-0.00172331
-0.00520215
-0.00557306
-0.00610462
-0.00623528
-0.0059648
-0.00542082
-0.00481145
-0.00425597
-0.00381071
-0.00349912
-0.00330461
-0.00322772
-0.00328314
-0.00341231
-0.00327055
-0.0029329
-0.0024149
-0.00180366
-0.0011816
-0.000615179
-0.000112812
0.000332245
0.000690911
0.00119041
0.00168018
0.00234082
0.00293539
0.00403641
0.00458771
0.00531122
0.00622801
0.00703936
0.00752666
0.00780148
0.00870875
0.0075192
0.00289408
-0.00176171
0.00665823
0.00166017
-0.00372045
0.00012577
-0.00104359
-0.00220855
-0.000666486
-0.000159926
0.000344735
-0.00160902
-5.45654e-05
0.00150234
0
0
0
0
0
0
-0.00966422
-0.00923886
-0.00883427
-0.00804463
-0.00690046
-0.00570865
-0.00480767
-0.00417303
-0.00302676
-0.00246119
-0.00185971
-0.00144405
-0.00104995
-0.000762277
-0.000442466
-0.000135036
0.000163045
0.000470226
0.000775052
0.00105288
0.00125263
0.001349
0.00166791
0.00200666
0.00242012
0.00292519
0.00356541
0.00441015
0.00548713
0.00678341
0.00820018
0.00951084
0.0105673
0.0113287
0.0123402
0.00748006
0.00503307
0.00332208
0.00256371
0.00196087
0.00117167
0.000662426
0.000177077
-0.000336028
-0.000810351
-0.00113954
-0.00213389
-0.00345329
-0.00525977
0
0
0
0
0
0
0
0
0
0
0
0
0
0
0
0
0
0
0
0
0
0
-0.063961
-0.0634402
-0.0629248
-0.0625258
-0.0624736
-0.0629893
-0.0641574
-0.0658335
-0.0675692
-0.0690219
-0.0697986
-0.0638675
-0.0579275
-0.0521207
-0.0469793
-0.0372105
-0.0324733
-0.0286131
-0.025473
-0.0227337
-0.0201307
-0.0174824
-0.0145492
-0.0118246
-0.0118904
-0.0119088
-0.0119486
-0.0119525
-0.0119198
-0.0119021
-0.0118639
-0.0118775
-0.0118375
-0.0118855
-0.012
-0.0123353
-0.0128653
-0.0185806
-0.0232111
-0.0284627
-0.0339251
-0.039352
-0.0444747
-0.0489134
-0.052567
-0.0554714
-0.0578266
-0.0598905
-0.0618887
-0.0561593
-0.056142
-0.0552336
-0.0533269
-0.0502571
-0.0461983
-0.040775
-0.0354008
-0.0304233
-0.0266541
-0.0239414
-0.0218535
-0.0222086
-0.023341
-0.0250995
-0.0274969
-0.0306327
-0.0347794
-0.0393197
-0.0444358
-0.0490331
-0.0528164
-0.0232483
-0.0229222
-0.0225793
-0.0550387
-0.055047
-0.0550539
-0.0702488
-0.070193
-0.0701805
-0.0643155
-0.0642514
-0.0644095
-0.0429928
-0.0429766
-0.042796
-0.0123216
-0.0118881
-0.011682
-0.0149701
-0.0157234
-0.0161814
-0.0157934
-0.0186178
-0.0211422
-0.023632
-0.0262587
-0.0292827
-0.033031
-0.0376761
-0.0473239
-0.0524021
-0.0581348
-0.0640129
-0.0699034
-0.0691043
-0.0676327
-0.0658907
-0.0642192
-0.0630672
-0.0625776
-0.0626598
-0.0630864
-0.0636204
-0.0641486
-0.0620842
-0.0601089
-0.0580877
-0.0557944
-0.0529718
-0.049417
-0.0450904
-0.0400882
-0.0347922
-0.0294996
-0.0245114
-0.0203082
-0.0157794
-0.0152178
-0.0147871
-0.0145329
-0.0143613
-0.0142365
-0.0141911
-0.0141583
-0.0141204
-0.0140363
-0.013892
-0.013734
-0.0135431
-0.0132905
-0.0528694
-0.0491556
-0.0446657
-0.0396761
-0.0353076
-0.031344
-0.0283957
-0.0261575
-0.0244893
-0.0233896
-0.0230175
-0.0250359
-0.0277434
-0.0314941
-0.0363881
-0.0416108
-0.0468505
-0.050736
-0.0536499
-0.0554273
-0.0562482
-0.0562047
-0.0236877
-0.0241462
-0.0245688
-0.0249392
-0.0252433
-0.0254694
-0.0256087
-0.021579
-0.0175018
-0.0134246
-0.00934734
-0.00522363
-0.0050849
-0.00485943
-0.00455588
-0.00418596
-0.00376392
-0.003306
-0.00690597
-0.0109822
-0.0150584
-0.0191346
-0.00505022
-0.00912604
-0.0132018
-0.0172776
-0.0218177
-0.022282
-0.0227464
-0.00236598
-0.00190216
-0.00143827
-0.000974306
-0.000974452
-0.00097505
-0.000976611
-0.00505372
-0.0091275
-0.0132012
-0.0172744
-0.0213516
-0.0213529
-0.0213533
-0.0213535
-0.000491454
-7.8364e-06
0.000465142
0.00092039
0.00133192
-0.00231739
-0.00621877
-0.0101073
-0.0140181
-0.0186435
-0.0192302
-0.0197778
-0.0203101
-0.020831
0.0014102
0.00129131
0.0012328
0.00121364
-0.00256368
-0.0063368
-0.0101074
-0.0138742
-0.0176399
-0.0176514
-0.0176966
-0.0177832
-0.0170739
-0.0164776
-0.0158182
-0.01505
-0.0140541
-0.0163839
-0.0165801
-0.0169311
-0.0173677
-0.0178285
-0.0183048
-0.0187886
-0.0192757
-0.0197629
-0.020252
-0.0207416
-0.0212321
-0.0217231
-0.0222148
-0.0227067
-0.0231987
-0.023691
-0.0241836
-0.0246765
-0.0251696
-0.0256629
-0.0256627
-0.0256623
-0.0256617
-0.0256608
-0.0256598
-0.0256588
-0.0256578
-0.0256568
-0.00526496
-0.0052651
-0.00526546
-0.00526597
-0.00526665
-0.00526743
-0.00526823
-0.005269
-0.00526969
-0.0215833
-0.0175037
-0.0134242
-0.00934464
-0.00477594
-0.00428684
-0.00379753
-0.0033079
-0.00281792
-0.00232762
-0.00183672
-0.00134437
-0.000851624
-0.000357363
0.000138992
0.000636925
0.00113831
0.00164166
0.00214682
0.00265213
0.00315064
0.00364447
0.0041054
0.00449916
0.00481551
0.00495987
0.00495431
0.00476029
0.00440048
0.00391935
0.00332746
0.00242527
0.00187075
0.000982914
0.000611181
0.000287562
-0.000305359
-0.000419969
-0.000431878
0.000270652
0.00103215
0.00178966
0.00265461
0.00316014
0.00351981
0.00414325
0.00477199
0.00532763
0.00594132
0.00647376
0.00696417
0.00741652
0.00793652
0.00855135
0.00919878
0.00969108
0.0102909
0.00981045
0.00970209
0.010018
0.0108383
0.0106097
0.0106157
0.0105587
0.01041
0.0100619
0.00950274
0.00893872
0.00836696
0.00769357
0.00702527
0.00627791
0.00557197
0.00495487
0.00444158
0.00394701
0.00351014
0.00308092
0.00265517
0.00221521
0.00172869
0.00876833
0.00880425
0.00887395
0.00958282
0.00241365
0.00129498
-0.000260951
-0.00198442
-0.00892171
-0.00918584
-0.00967756
-0.0102486
-0.0107459
-0.0111492
-0.0115206
-0.0118259
-0.0120506
-0.0120849
-0.0103407
-0.00779622
-0.00555537
-0.00344669
-0.0014166
0.000540193
0.00247448
0.00442228
0.00653821
0.00871341
-0.0040097
-0.00465471
-0.00491197
-0.00473692
-0.00438384
-0.00399701
-0.00364825
-0.00322796
-0.00316989
-0.00296647
-0.00339286
0.00535604
0.0049434
0.00532268
0.00542659
0.0043279
0.00379598
0.00506282
-0.000134819
-0.00162323
0.00100545
-0.00193458
-0.0018083
-0.00142391
0.000567916
-0.000460806
0.00164032
0.0015425
-0.00139023
0.000113249
0.000703496
-0.00174849
-0.00132707
0.00181623
0.0017219
-0.000388481
0.00124622
0.00140612
0.000673801
0.000694377
0.00164795
0.00130397
0.00179489
0.00165415
0.00126863
0.000887606
0.000804273
-0.000331331
0.000795371
0.000746853
0.0010718
-0.00305218
0.000659746
-0.00111171
0.000252658
-0.000175327
-0.000623451
-0.00219175
-0.00269193
0.0010186
0.00330715
0.00250653
0.00188608
0.00140338
-0.00210625
-0.00386333
-0.00335997
-0.00331308
-0.00401916
-0.0040319
-0.00248662
-0.00362556
-0.00307009
0.00328265
0.00407424
0.00365819
0.0029209
0.00423554
-0.000372095
-0.00124124
-0.000340405
0.000813249
0.00111282
0.00101125
-0.000890157
-0.00297907
-0.00163778
-0.00256981
0.00218587
-0.00240685
-0.00284268
-0.0028146
-0.00231065
-0.00241294
0.00257625
0.00172323
0.00319565
0.0014548
-0.00139623
-0.00197678
0.00143617
-0.00250118
-0.00215333
-0.00310789
-0.00295795
0.00210283
0.00277815
-0.00160122
0.00261487
0.00300802
-0.0029911
-0.00323132
0.000962878
-0.000956989
-0.00169301
-0.00146141
0.000831689
0.000177799
-0.00212053
0.000740062
-0.00270962
0.00184479
0.0014513
-0.0032391
-0.00335734
0.0019999
0.00831822
0.00774407
0.00696964
0.00596444
0.00496422
0.00407876
0.00334558
0.00233275
0.00196385
0.0085342
0.00278154
-0.00626092
-0.00669511
-0.00680881
-0.00649635
-0.00470772
-0.00396627
-0.00574329
-0.000104888
0.00112542
-0.00112741
0.00224298
0.00160855
0.000822638
-0.00071095
0.000141117
-0.00170849
-0.00159878
0.00111793
0.00167515
-0.00069214
0.00267984
0.00249385
-0.00244223
-0.0020204
0.0022731
-0.00172229
-0.00147688
-0.000203236
0.000425818
-0.00186819
0.00235075
0.00125158
0.000899901
0.000583563
-0.000136229
-0.000606061
0.00590944
0.00397819
-0.000749721
-0.00117433
0.00153382
-0.000939211
0.000327628
-0.000597977
-0.000274556
2.32524e-05
0.000994803
0.00130497
-0.00125203
-0.00340074
-0.00260879
-0.00202792
-0.00159134
0.00856152
0.00436786
0.00305522
0.00602407
0.00583468
0.00512083
0.00640148
0.00367223
0.00247922
-0.0036264
-0.00504687
-0.00503457
-0.0030437
-0.00491081
0.0032991
0.00615326
0.00434653
-0.000973775
-0.00160465
-0.00159029
0.000451182
0.00182736
0.000645904
0.00154035
-0.00227766
0.0033491
0.00258726
0.00455313
0.00498892
0.00186008
-0.00362294
-0.00185425
-0.00472614
-0.00238271
0.00376401
0.00114956
-0.00155531
0.00174162
0.00408417
0.00353851
0.00298047
-0.00333249
-0.00362672
0.00491408
-0.00270024
-0.0036756
0.00213301
0.00164205
-0.00121797
0.0025164
0.00166044
0.00110893
0.00100742
-0.000361439
0.00174207
-0.000574666
0.00229681
-0.00196239
-0.0022627
0.00420532
0.00487723
-0.00302464
-2.82231e-05
0.000824013
0.00142202
0.00160367
0.0013265
0.00112054
0.00120187
0.00124125
0.00127757
0.00135225
0.00162596
0.00220308
0.00306121
0.00441583
0.00293095
0.00299323
0.00285295
0.00249583
0.00208202
0.00165413
0.00117315
0.000704721
0.000329159
0.000183053
0.000240968
0.000438283
0.000674073
0.00111403
0.00611755
0.00513894
0.00424398
0.00335393
0.00275889
0.00217437
0.00123646
0.000267142
-0.000532516
-0.000878411
-0.00114039
-0.00124092
-0.00176736
-0.00260366
-0.00272817
-0.00159426
-0.000743847
-0.000117267
0.000322883
0.000604527
0.000945809
0.00128849
0.00174117
0.00214443
0.00252599
0.00342607
0.00432755
0.00581722
0.000984302
0.000963933
0.000959269
0.00144392
0.00144682
0.00157841
0.00174112
0.00180438
0.0020234
0.00230985
0.00240928
0.00256172
0.00278082
0.00278908
0.00478453
0.00334978
0.00253182
0.00231102
0.0020815
0.00208227
0.00219009
0.00228108
0.00216662
0.00231947
0.00230137
0.00186695
0.00123771
-6.82551e-05
-0.00202599
-0.00189143
-0.00182611
-0.00182028
-0.00186512
-0.00196408
-0.00209999
-0.00224213
-0.00233496
-0.00225519
-0.00192616
-0.00127097
-0.000104655
-0.000817195
-0.000615803
-0.000439268
-0.0002733
-9.74999e-05
0.000112631
0.000380469
0.000726691
0.00116646
0.00169587
0.00229612
0.0028985
0.00340155
0.000395739
0.000661453
0.000944996
0.0012662
0.00165754
0.00217192
0.00284042
0.00367354
0.00464179
0.00561428
0.00647289
0.0070937
0.0068102
0.000257325
7.67499e-05
-0.00018172
-0.000497578
-0.000858813
-0.00124282
-0.00160909
-0.00190706
-0.00210032
-0.00218634
-0.000173993
-0.000207219
-0.000268645
-0.000366998
-0.000504342
-0.000666444
-0.000824424
-0.000947817
-0.00101825
-0.00104141
-0.000607057
-0.000493196
-0.000357707
-0.000238108
-0.000151075
-9.1003e-05
-4.05337e-05
1.11952e-05
6.5158e-05
0.00010699
0.00119467
0.00090576
0.000646454
0.000462173
-5.03187e-05
-6.3416e-05
-9.11775e-05
-0.000125617
-0.00129336
-0.00103141
-0.00082897
-0.000714761
0.00339072
0.00359658
0.00349637
0.00326741
0.00290024
0.0024759
0.00215241
0.00188074
-0.000496099
-0.000696243
-0.000633825
-0.000481393
-0.000325643
-0.000200235
-0.000117211
-7.54669e-05
-0.00422252
-0.00496549
-0.00475135
-0.00423874
-0.00355751
-0.00287858
-0.00238528
-0.00202887
0
0
0
0
0
0
0
0
0
0
0
0
0
0
0
0
0
0
0
0
0
0
0
0
0
0
0
0
0
0
0
0
0
0
0
0
0
0
0
0
0
0
0
0
0
0
0
0
0
0
0
0
0
0
0
0
0
0
0
0
0
0
0
0
0
0
-0.0617399
-0.060755
-0.0611389
-0.0616185
-0.06088
-0.0636748
-0.0617736
-0.0611106
-0.0614243
-0.0637432
-0.0577787
-0.0492106
-0.0334633
-0.0450255
-0.0223982
-0.0555292
-0.0395848
-0.0527503
-0.0277608
-0.0597825
-0.0176216
-0.0202653
-0.0228826
-0.0255441
-0.0284662
-0.0147945
-0.0322048
-0.0578065
-0.0580628
-0.0300036
-0.0392273
-0.0225629
-0.0449796
-0.024543
-0.048785
-0.0344524
-0.0431587
-0.0222652
-0.0200616
-0.0250271
-0.0578084
-0.0556898
-0.0570648
-0.0516082
-0.0567061
-0.0273846
-0.0381333
-0.0493411
-0.0219355
-0.0197796
-0.0187461
-0.0155735
-0.0164502
-0.0164384
-0.0150603
-0.0146924
-0.0170188
-0.0166304
-0.0152741
-0.0159943
-0.0173855
-0.0165199
-0.0388138
-0.0550895
-0.0506015
-0.0450228
-0.0616859
-0.0589137
-0.0598347
-0.0595035
-0.017561
-0.0527294
-0.0553479
-0.0597735
-0.0430702
-0.0330259
-0.0376976
-0.0270575
-0.0491383
-0.0261299
-0.0283332
-0.0204053
-0.0233666
-0.0305859
-0.0212571
-0.0208765
-0.021784
-0.0179027
-0.0203853
-0.0535798
-0.0406183
-0.0346981
-0.0176941
-0.05648
-0.0461344
-0.0367237
-0.0547671
-0.0525104
-0.0306822
-0.0252434
-0.0227955
-0.0306885
-0.0208818
-0.020925
-0.0254443
-0.020276
-0.0149054
-0.0585049
-0.026127
-0.0572378
-0.0402093
-0.0502161
-0.0277595
-0.0203199
-0.0581686
-0.0581635
-0.0540327
-0.0345017
-0.020542
-0.0304904
-0.0597562
-0.0182312
-0.0579107
-0.0456346
-0.0185804
-0.0339419
-0.017747
-0.057654
-0.061786
-0.0608195
-0.0612694
-0.0618005
-0.0609756
-0.063748
-0.0618091
-0.0611533
-0.0615854
-0.0638497
-0.058041
-0.0497243
-0.034374
-0.0456479
-0.0237677
-0.0558562
-0.0403464
-0.0531617
-0.0288547
-0.0599991
-0.0188085
-0.0213236
-0.0238179
-0.0263571
-0.0291635
-0.0161088
-0.0327904
-0.057853
-0.0581148
-0.0310579
-0.0400849
-0.0236922
-0.0452579
-0.0256511
-0.0493333
-0.0349761
-0.0438915
-0.0233565
-0.0211841
-0.0260141
-0.0578955
-0.0559157
-0.0571419
-0.0520392
-0.0568488
-0.0282404
-0.038548
-0.0495358
-0.0231084
-0.0208478
-0.0198691
-0.0169705
-0.0176464
-0.0177466
-0.0164354
-0.016219
-0.0187635
-0.0182912
-0.0166825
-0.0173062
-0.0186776
-0.0180694
-0.0392572
-0.0552672
-0.050848
-0.0453622
-0.0618785
-0.0590346
-0.0600174
-0.0596565
-0.0194255
-0.0531435
-0.0556737
-0.0599782
-0.0437708
-0.0339745
-0.0385261
-0.0281858
-0.0496682
-0.0269502
-0.0290555
-0.0215061
-0.0243377
-0.0312369
-0.0226067
-0.0221628
-0.0231779
-0.0191638
-0.0215767
-0.0537031
-0.0409972
-0.0352228
-0.0189158
-0.0567294
-0.0467648
-0.0376081
-0.0550888
-0.0529239
-0.0317078
-0.0261643
-0.0238613
-0.031356
-0.0220525
-0.0221542
-0.0265778
-0.0214566
-0.0162595
-0.058713
-0.0272738
-0.0574032
-0.040997
-0.0507127
-0.0285403
-0.021467
-0.0582887
-0.0582052
-0.0543431
-0.0354849
-0.021587
-0.0311766
-0.0598431
-0.0194442
-0.0581027
-0.0462581
-0.0198105
-0.0349037
-0.0189963
-0.0579044
-0.0242732
-0.0270959
-0.030878
-0.0356993
-0.040788
-0.0460043
-0.0499982
-0.0532238
-0.0553701
-0.0564109
-0.056386
-0.0246388
-0.027446
-0.031193
-0.035937
-0.0409374
-0.0460781
-0.050035
-0.0532505
-0.0554012
-0.0564262
-0.0563877
-0.0249521
-0.0277333
-0.0314548
-0.0361946
-0.0411995
-0.0463285
-0.050245
-0.0533962
-0.0554766
-0.0564716
-0.056412
-0.0526099
-0.0488493
-0.0444854
-0.0396393
-0.0353123
-0.0311876
-0.0279323
-0.0253689
-0.0235041
-0.0223205
-0.0219795
-0.0526298
-0.0489141
-0.0446043
-0.0398143
-0.0355502
-0.0314597
-0.0282151
-0.025651
-0.0237879
-0.0226182
-0.0223039
-0.0526407
-0.0489192
-0.0446129
-0.0398291
-0.0355841
-0.0315419
-0.0283705
-0.0258872
-0.0240824
-0.0229554
-0.0226579
-0.0698688
-0.0690775
-0.0675946
-0.0658251
-0.0641209
-0.0629331
-0.062417
-0.0624903
-0.0629259
-0.0634756
-0.06397
-0.0699086
-0.0690825
-0.0676079
-0.065853
-0.064173
-0.0629935
-0.0624719
-0.0625353
-0.0629637
-0.0634986
-0.0639248
-0.0699337
-0.0691379
-0.0676501
-0.0658789
-0.0641758
-0.0629928
-0.0624853
-0.0625687
-0.0630134
-0.0635685
-0.0640642
-0.0472868
-0.0524283
-0.0582172
-0.0641293
-0.0474527
-0.052571
-0.0583261
-0.0642149
-0.0474536
-0.0525645
-0.0583199
-0.0642053
-0.0150821
-0.0177899
-0.0204146
-0.0230423
-0.0258325
-0.0290192
-0.0328754
-0.0375639
-0.0154438
-0.0181236
-0.0206873
-0.0232986
-0.0260822
-0.0292598
-0.0330992
-0.0377621
-0.0157154
-0.0183549
-0.0209215
-0.0234929
-0.0262265
-0.0293546
-0.0331539
-0.037796
-0.0618864
-0.0598623
-0.0577608
-0.0553548
-0.0524195
-0.0487808
-0.0444199
-0.0394163
-0.0341187
-0.0287601
-0.0235603
-0.0185112
-0.0619006
-0.0598834
-0.0577787
-0.0553723
-0.0524443
-0.0488291
-0.0445117
-0.0395646
-0.0343267
-0.0290237
-0.0238102
-0.0189048
-0.0619841
-0.0599709
-0.0578906
-0.0555157
-0.0526216
-0.0490331
-0.0447291
-0.039786
-0.0345559
-0.0292855
-0.0242296
-0.0194321
-0.0141511
-0.0133708
-0.012753
-0.0123263
-0.0121886
-0.0122483
-0.0125309
-0.0128617
-0.0130102
-0.0130584
-0.0129129
-0.0126565
-0.0123332
-0.0119817
-0.0147198
-0.013868
-0.0131674
-0.0126977
-0.0125221
-0.0125855
-0.0128633
-0.0131899
-0.0133931
-0.0134536
-0.0133063
-0.01302
-0.0126569
-0.012279
-0.0151315
-0.0143177
-0.0136565
-0.0131909
-0.0130065
-0.013014
-0.0132373
-0.0135266
-0.0137179
-0.0137757
-0.0136318
-0.0133578
-0.0130112
-0.0126806
-0.0126472
-0.0129706
-0.0131618
-0.0132838
-0.0134172
-0.0135356
-0.0136723
-0.0138191
-0.0139604
-0.0141317
-0.0143424
-0.0146068
-0.0149222
-0.0155412
-0.0121891
-0.012498
-0.0126508
-0.0127562
-0.0128481
-0.0129685
-0.0130977
-0.0132172
-0.0133775
-0.01353
-0.0137304
-0.0139611
-0.0143001
-0.0150254
-0.0119166
-0.0121801
-0.0122165
-0.0122662
-0.0123361
-0.012412
-0.0124876
-0.0125551
-0.0126441
-0.0127203
-0.0129111
-0.0130967
-0.0134114
-0.0141548
-0.0196114
-0.0200698
-0.0204923
-0.0208627
-0.0211666
-0.0213926
-0.0215318
-0.015535
-0.0159933
-0.0164157
-0.016786
-0.0170898
-0.0173156
-0.0174547
-0.0114586
-0.0119168
-0.0123391
-0.0127092
-0.0130129
-0.0132386
-0.0133777
-0.00738229
-0.00784033
-0.00826246
-0.00863248
-0.00893611
-0.00916172
-0.00930061
-0.00551423
-0.0095901
-0.0136659
-0.0177418
-0.00597818
-0.0100541
-0.0141301
-0.018206
-0.00644209
-0.0105182
-0.0145942
-0.0186703
-0.00505026
-0.00505041
-0.00505085
-0.00505187
-0.00912606
-0.00912613
-0.0091263
-0.00912661
-0.0132018
-0.0132018
-0.0132017
-0.0132016
-0.0172776
-0.0172775
-0.0172771
-0.0172762
-0.0045592
-0.00406831
-0.00358282
-0.00311505
-0.00267924
-0.00862753
-0.00812839
-0.00763353
-0.00714325
-0.00667033
-0.0126955
-0.0121897
-0.0116822
-0.0111732
-0.0106592
-0.0167633
-0.0162493
-0.0157293
-0.015197
-0.0146414
-0.00244282
-0.00251443
-0.00255144
-0.00256323
-0.00627501
-0.00630805
-0.00632673
-0.00633522
-0.0101012
-0.0100939
-0.0100977
-0.0101039
-0.013928
-0.0138927
-0.0138744
-0.0138716
-0.0219904
-0.022976
-0.0234581
-0.0238518
-0.0247479
-0.0241939
-0.024993
-0.0252122
-0.0245469
-0.0252136
-0.0172887
-0.0146674
-0.0147813
-0.0148845
-0.0252352
-0.0252358
-0.0171538
-0.0171934
-0.0143522
-0.0144305
-0.0145346
-0.0153114
-0.0155251
-0.0159736
-0.0252334
-0.0252366
-0.0252367
-0.025219
-0.0252161
-0.025228
-0.017393
-0.0217765
-0.0204946
-0.0190257
-0.0219682
-0.0185361
-0.017578
-0.0166971
-0.0180515
-0.0195143
-0.0200043
-0.0209855
-0.0214768
-0.0229524
-0.0234449
-0.0244289
-0.0171172
-0.0224605
-0.0239392
-0.0195056
-0.0147931
-0.015461
-0.0161699
-0.0189235
-0.0200458
-0.0205951
-0.0182707
-0.0212019
-0.0247685
-0.0245113
-0.023777
-0.023224
-0.0247901
-0.0224903
-0.0150169
-0.0142339
-0.0157415
-0.0252326
-0.0167134
-0.0248117
-0.0153032
-0.0151431
-0.0218745
-0.0217916
-0.0159947
-0.0248128
-0.0248105
-0.015458
-0.0248121
-0.0150283
-0.0151747
-0.0150774
-0.0248042
-0.0167781
-0.0217426
-0.0175498
-0.0231997
-0.0217218
-0.0192638
-0.0202467
-0.020738
-0.0187724
-0.0248452
-0.0182824
-0.0177958
-0.0197551
-0.017316
-0.0168504
-0.0212299
-0.0222137
-0.024198
-0.0227063
-0.0237008
-0.0203195
-0.0150659
-0.0158688
-0.0197841
-0.0192249
-0.0186312
-0.0208492
-0.0243516
-0.024733
-0.0243708
-0.0227203
-0.0162102
-0.0221955
-0.0248118
-0.0156869
-0.0159785
-0.0243875
-0.0156555
-0.0243855
-0.0158071
-0.0157021
-0.0243867
-0.0158341
-0.0248021
-0.0155698
-0.0161616
-0.0222116
-0.0243818
-0.0165788
-0.0163608
-0.0190079
-0.0199959
-0.019502
-0.0224587
-0.020489
-0.0219666
-0.0185142
-0.0209819
-0.0214743
-0.0229505
-0.0239624
-0.018019
-0.0234341
-0.0175219
-0.0170273
-0.016802
-0.0222028
-0.018
-0.019522
-0.0200621
-0.015675
-0.0205952
-0.0189705
-0.0222137
-0.0239401
-0.0229403
-0.0243064
-0.0239529
-0.0226684
-0.0161912
-0.0163027
-0.0243921
-0.0239505
-0.0161967
-0.0164209
-0.0243861
-0.0239548
-0.0164311
-0.0166363
-0.0167007
-0.0162109
-0.0161032
-0.0239571
-0.0166065
-0.0244176
-0.0236063
-0.0217185
-0.0222115
-0.0197254
-0.0192337
-0.0212253
-0.0202204
-0.0207235
-0.0231887
-0.0172169
-0.017729
-0.0187396
-0.0182414
-0.0227037
-0.0217571
-0.0169705
-0.0226527
-0.0221893
-0.018411
-0.0211226
-0.0198325
-0.0203623
-0.0193137
-0.016384
-0.0235166
-0.0239719
-0.0224355
-0.0235239
-0.0166915
-0.0167006
-0.0167595
-0.0168581
-0.0169135
-0.0239469
-0.0235198
-0.0235349
-0.0230996
-0.0226442
-0.0219596
-0.0214595
-0.0209507
-0.0234705
-0.0224568
-0.0194346
-0.0199334
-0.0173909
-0.0189393
-0.020439
-0.0229406
-0.0179431
-0.0184368
-0.0217154
-0.0208916
-0.0213159
-0.0187836
-0.0201449
-0.0196345
-0.0178214
-0.023086
-0.0235198
-0.0242915
-0.0231033
-0.0171294
-0.0172561
-0.017381
-0.0239608
-0.0235042
-0.0230865
-0.0231691
-0.0216954
-0.0222018
-0.0211803
-0.0226974
-0.023126
-0.0206622
-0.0191218
-0.0181018
-0.0186069
-0.0221829
-0.0226462
-0.0216985
-0.0214221
-0.0182348
-0.0172479
-0.0239393
-0.0226788
-0.0219423
-0.0224539
-0.0230213
-0.0176425
-0.0176695
-0.0235203
-0.0221916
-0.0234298
-0.0162257
-0.0231317
-0.00934466
-0.00934473
-0.00934491
-0.0093452
-0.00934556
-0.00934594
-0.00934634
-0.00934672
-0.00934706
-0.0134242
-0.0134242
-0.0134242
-0.0134243
-0.0134243
-0.0134244
-0.0134244
-0.0134245
-0.0134245
-0.0175037
-0.0175037
-0.0175035
-0.0175034
-0.0175031
-0.0175028
-0.0175025
-0.0175022
-0.0175019
-0.0215832
-0.0215831
-0.0215829
-0.0215824
-0.0215819
-0.0215813
-0.0215806
-0.02158
-0.0215794
-0.00482736
-0.00414323
-0.00460467
-0.00303378
-0.00387079
-0.00138577
-0.00484082
-0.00257273
-0.00208248
0.00385064
-0.00355484
-0.00306351
-0.00135073
-0.00138689
-0.00139345
-0.00257162
-0.00209694
-0.00349662
-0.00434344
-0.00482779
-0.0048441
-0.0048446
-0.00484411
-0.00484328
-0.0048421
-0.00483752
-0.00482299
-0.0048206
-0.00159121
-0.000765572
-0.00109862
-0.000258152
-0.000605654
0.000227996
-0.000110489
0.000698463
0.000385836
0.00115344
0.000884998
0.00158956
0.00138551
0.00188834
0.00239122
0.00288849
0.00337935
0.00426599
0.00461541
0.00486431
0.00492656
0.00485279
0.00462432
0.00426199
0.00380405
0.00330789
0.00254419
0.00203984
0.00151604
0.00114869
0.00103166
0.000788099
0.000848437
0.0010668
0.00161159
0.00224525
0.00265988
0.00659609
0.00616354
0.00572493
0.00517088
0.00463318
0.00411219
0.00364544
0.00285482
0.00327388
0.00369051
0.0041204
0.00460804
0.00511949
0.00569363
0.00632475
0.00700022
0.00759291
0.00812501
0.00860688
0.0091188
0.00942161
0.00954081
0.00954001
0.0096799
0.00964651
0.00941732
0.00916491
0.00918756
0.00191896
0.00182769
0.00175304
0.00169818
-0.00439107
-0.00378005
-0.004123
-0.00323686
-0.00278001
-0.00441075
-0.00159682
-0.00232792
0.00706449
0.00310325
0.00244332
-0.00404012
-0.00442073
-0.000854026
0.0086204
0.00185979
0.0040208
-0.00181303
-0.000360342
0.00212917
0.00262514
0.0023067
0.00849907
0.00925609
-0.00441677
-0.00440681
0.00440966
0.00487901
0.00386273
0.00523769
0.00576388
0.00684806
0.00731256
0.005584
0.00520698
0.00367852
0.00346019
0.00479841
0.0045311
0.00382322
0.00335709
0.00280033
0.00248868
0.00306137
-0.00134619
0.00190267
0.00846681
0.00821908
0.00764097
-0.00181864
-0.00441987
-0.00232732
-0.00441909
-0.00442059
-0.00281602
-0.00331017
-0.00183742
0.000134749
0.000630963
0.00112913
0.0016287
0.00359245
0.00311657
0.00428761
0.00474713
0.00631052
0.007829
0.00179875
0.00592784
0.00472609
0.00859106
0.00204666
0.00270792
0.00420874
0.00314379
0.00471186
0.00490314
0.00421034
0.00818022
0.00214386
0.00865815
0.00873992
0.00853855
0.00873229
0.00220547
0.00205838
-0.00441825
-0.00182925
0.00227446
0.00198374
-0.00132782
0.000943408
-1.74346e-05
0.000472346
0.00138606
-0.000523402
-0.0039862
-0.00297321
0.00858016
-0.00254615
0.00220158
-0.00399424
0.00265509
-0.00229809
0.00646504
0.00416143
0.0078287
0.00318057
0.0079221
0.00559473
0.00270971
0.00784323
0.00768099
0.00323026
0.00772922
-0.00208308
0.00287951
0.00520645
0.00434132
0.0027244
0.00279842
0.00734539
0.00481444
0.0030548
0.00799115
0.00299276
0.00745019
0.00379768
0.00786692
0.00790128
0.00704238
0.00363545
0.00661256
0.00395034
0.00625866
0.00432599
0.00579251
0.00532672
0.00458464
0.00489137
0.00478469
0.00087706
0.00446144
0.000384349
0.0037683
0.00492181
-0.00399612
-0.000111418
0.0040533
0.00284573
0.00332009
-0.00399814
0.00235327
-0.000607787
0.00451452
-0.00256874
0.00137042
-0.00159339
-0.00399466
0.00364922
0.004915
0.00186203
-0.00399676
-0.00399405
-0.00110175
0.00477926
-0.00304842
0.0069282
0.00326043
-0.00380675
-0.0043393
0.00265517
-0.00399628
0.00233662
-0.00181891
-0.00104934
0.000733768
0.000231108
-0.000281524
0.00121946
-0.0027431
-0.00357415
-0.00336593
-0.00357138
0.00347807
-0.00183975
0.00487476
0.00207922
0.0047902
-0.00134751
0.00385975
-0.00355985
-0.00357252
0.00350069
0.00391682
0.00422846
0.00486096
0.00461866
0.00477162
0.00256781
0.00500716
0.00458873
0.00541199
0.00433015
0.00576996
0.0061526
0.003332
0.00793649
0.00593504
0.00406451
0.00647778
-0.00356851
0.00379786
0.00681378
0.00360208
0.00699595
0.00711257
0.00335233
0.00721099
0.00335916
0.00336816
0.00719762
0.00343554
0.00717713
0.00347537
0.00716116
0.00373433
0.00719443
0.00412526
0.00453492
0.00730191
0.0049056
0.00523154
0.00304113
0.00679528
0.00633286
0.000638586
0.000147724
0.00159647
-0.000350818
-0.000849148
0.00460259
0.0042911
-0.00232659
-0.00280499
0.00111948
-0.00356418
-0.00356682
-0.00402386
0.00287535
-0.00356917
0.00266362
0.0025192
-0.00227538
0.00241911
-0.00183917
-0.00445254
0.0016534
-0.000812552
0.000476199
-4.10394e-05
0.00103204
-0.00314447
-0.00366384
-0.00358408
-0.00314089
0.00370928
0.00408159
-0.00159112
0.00483543
-0.00308865
0.00490234
0.00228508
0.00179049
-0.00321657
0.00490403
0.00463801
0.00442469
0.00321736
0.00478434
0.00510724
-0.00108936
0.00484866
0.00276447
0.00472944
0.00544855
0.00452388
0.00573426
0.00604134
0.00432495
0.00559892
0.00629226
0.00417047
0.00648243
0.0040089
0.00661906
0.00674163
0.00669241
0.00395384
0.0039135
0.00400613
0.00661226
0.00669419
0.00663944
0.0067367
0.00406088
0.00413601
0.00458546
0.00508839
0.00636548
0.00602613
-0.00312376
-0.00216078
-8.20165e-05
0.004367
0.00364572
0.00132746
0.000413403
0.0040302
-0.00208461
-0.000584668
0.000879077
-0.00256652
-0.00312374
0.00308014
-0.0031361
0.00294599
0.00273438
0.0020557
-0.00227155
0.00154261
0.0017572
-0.000557411
0.000191534
0.000680886
0.00329918
-0.00270892
-0.00315227
-0.00394963
-0.0027106
0.00398497
0.00429567
0.00481589
0.0046578
0.00488142
-0.0013379
0.00459687
0.00249432
0.00196712
0.00441653
0.00294352
-0.00275139
0.0049518
0.00491285
0.00519359
0.00486667
0.00146064
0.00481727
0.00546924
0.00466578
0.00561535
0.00585363
0.00455145
0.00601819
0.0053619
0.00446235
0.0061178
0.00622347
0.00619936
0.00442376
0.00434655
0.00434602
0.00436495
0.00615339
0.00622864
0.00620471
0.00480912
0.00566681
-0.00184504
0.00337507
0.00411524
-0.000826252
-0.00031649
0.00376961
-0.00233402
-0.00264055
-0.0027067
0.003013
0.00253008
-0.00271291
0.0028363
-0.00228132
0.00209959
0.00191611
-0.00108955
0.00442836
-0.00317252
0.0042483
0.00452342
0.00469805
0.00485554
0.00446237
0.00476509
0.00494965
0.00269466
0.00502849
0.00505625
-0.00161899
0.005219
0.00501156
0.00417687
0.00500163
0.00539476
0.00550704
0.00496975
0.00565779
0.00489469
0.00586119
0.00490032
0.0058727
0.00526488
0.0060461
0.00589335
0.00488114
0.00588429
0.00473126
0.00474129
0.00572737
0.00587836
0.0056029
0.00309913
0.00385697
0.00349432
0.00362269
-0.00233889
-0.00272567
0.00313311
-0.00187245
0.00293792
-0.00140907
-0.00230725
-0.00194353
0.00544458
0.00449439
0.00471054
0.00467295
0.00445501
0.00483871
0.00492367
0.0041877
0.00500268
0.00283297
0.00509742
0.00508782
0.00523679
0.00509731
0.00530743
0.00510183
0.00531249
0.00510764
0.00551174
0.00518711
0.0055631
0.00527274
0.00565943
0.00546885
0.0051658
0.00537276
0.00390924
0.00392629
0.00357453
0.00329266
0.00506611
0.00391375
-0.00212014
0.00354854
0.002485
-0.00149937
0.00421429
0.00366092
0.00498838
0.00107708
0.00325418
0.00320256
0.00228023
0.00331666
-0.000214102
0.00115292
0.00232344
0.00269619
0.00321392
0.00328433
0.00301113
0.00307101
0.00316435
0.00332015
0.00343252
0.00428748
0.00539583
0.00675915
0.00107238
0.00213639
0.00286987
0.00346445
0.00368531
0.00404074
0.00416747
0.00424379
0.00438336
0.00457937
0.00491389
0.00537928
0.00595754
0.0074156
0.00213791
0.00272588
0.00339143
0.00396223
0.00448056
0.00478634
0.00510663
0.00523164
0.00548378
0.00574438
0.00620723
0.00661078
0.007425
0.00800122
0.00281594
0.00335449
0.00396141
0.00452076
0.00506085
0.0054686
0.00584775
0.00627725
0.00666796
0.00703908
0.00747533
0.00801661
0.00849434
0.00906217
-0.0133225
-0.00956213
-0.00579728
-0.00203187
-0.0127515
-0.00900221
-0.00526129
-0.00152152
-0.0121355
-0.00844403
-0.00473152
-0.00103143
-0.0114901
-0.00786161
-0.00419838
-0.000568389
-0.0107748
-0.00728027
-0.00368919
-9.15613e-05
-0.0100541
-0.00672866
-0.00315625
0.000393055
-0.00959431
-0.00623287
-0.00268483
0.000866105
-0.00922922
-0.00582098
-0.00221118
0.00139009
-0.00887399
-0.00538692
-0.0017209
0.00200743
-0.00863147
-0.00496671
-0.00123072
0.00255692
-0.00845936
-0.00460395
-0.000678186
0.0031093
-0.00818791
-0.00414783
-0.000173101
0.00378538
-0.00785323
-0.00368742
0.00036052
0.00439378
-0.00749729
-0.00340656
0.000812951
0.00498323
-0.00708356
-0.00283497
0.0012871
0.00547248
-0.00667553
-0.00244275
0.0019266
0.00604358
-0.00621925
-0.00192319
0.0022204
0.00641656
-0.00574744
-0.00162883
0.00261045
0.00675613
-0.00560391
-0.00122546
0.00300423
0.00702356
-0.00482152
-0.000958249
0.00316213
0.00712019
-0.00390681
0.000220014
0.00380713
0.00742117
-0.00140331
0.0016393
0.00463908
0.00759716
0.00202124
0.00389944
0.00596389
0.00779567
0.00548183
0.00630575
0.00730642
0.00852693
0.00031566
0.00119955
0.0018203
0.00231965
0.00286349
0.00277924
0.00230925
0.00210166
0.00543253
0.00406757
0.00291202
0.00185536
0.0072468
0.00484233
0.00282587
0.00139674
0.00635771
0.00492288
0.00260223
0.00103694
0.00525688
0.00345693
0.00227562
0.000902695
0.00354776
0.00274581
0.001362
0.000441705
0.00218914
0.00141905
0.000947097
0.000409243
0.000670913
0.000501337
0.000353374
0.000369711
-0.000796729
-0.000333084
8.36435e-05
0.000567221
-0.00230519
-0.00137241
-0.000443904
0.000566097
-0.00381096
-0.00230732
-0.000727481
0.000829959
-0.0053858
-0.00335931
-0.00119385
0.000904753
-0.00703361
-0.00439004
-0.00153958
0.00105441
-0.00858084
-0.00505295
-0.0019869
0.00116432
-0.00962374
-0.00567264
-0.00223362
0.00123271
-0.0103217
-0.00627773
-0.00254989
0.00118886
-0.0109981
-0.00682844
-0.00289946
0.00102507
-0.0115834
-0.00732903
-0.00329959
0.000744783
-0.0119703
-0.00781981
-0.00370731
0.000396294
-0.0123808
-0.00826851
-0.00413739
-1.78845e-05
-0.0127997
-0.00870099
-0.00459933
-0.000478121
-0.013258
-0.00916758
-0.00506528
-0.000958043
-0.0137311
-0.0096381
-0.00554503
-0.0014475
-0.0142126
-0.010124
-0.00604029
-0.00194632
-0.0147007
-0.0106158
-0.00653332
-0.00244558
-0.0151908
-0.0111094
-0.00702753
-0.0029449
-0.0156807
-0.0116014
-0.00752338
-0.00344334
-0.016172
-0.0120946
-0.00801778
-0.00393889
-0.0166637
-0.0125875
-0.00851101
-0.00443413
-0.0171552
-0.0130794
-0.00900375
-0.0049279
-0.0176468
-0.0135714
-0.00949609
-0.00542053
-0.0181387
-0.0140629
-0.00998773
-0.00591222
-0.0186304
-0.0145546
-0.0104791
-0.00640336
-0.0191223
-0.0150462
-0.0109702
-0.00689417
-0.0196142
-0.0155376
-0.0114611
-0.00738457
-0.0201063
-0.0160291
-0.0119519
-0.00787478
-0.0205985
-0.0165206
-0.0124427
-0.00836482
-0.0210908
-0.0170121
-0.0129335
-0.00885476
0.0068402
0.00497093
0.00318987
0.00129652
-0.000388365
-0.00226788
-0.00415265
-0.00612453
-0.0081502
-0.0103402
0.00465208
0.00329031
0.00189309
0.00017444
-0.00132996
-0.00309185
-0.00480806
-0.00664398
-0.00842896
-0.0103116
0.00296895
0.00193909
0.000586152
-0.000740956
-0.00225715
-0.00371085
-0.00540206
-0.00700975
-0.00871895
-0.0103705
0.00175338
0.000744174
-0.000465885
-0.00156901
-0.00300242
-0.00442357
-0.00594793
-0.00741143
-0.0089476
-0.0103816
0.000526307
-0.000189364
-0.00124884
-0.00241723
-0.00369416
-0.0050183
-0.00638388
-0.00777857
-0.0091628
-0.0104695
0.000232893
-0.00091004
-0.0019232
-0.00310311
-0.00429691
-0.00557088
-0.00673921
-0.00805652
-0.00933632
-0.0105692
-0.000420279
-0.00153459
-0.00252573
-0.00368523
-0.0049205
-0.00588997
-0.00718144
-0.00836096
-0.00948536
-0.0106633
-0.000937925
-0.00201576
-0.00309951
-0.00425628
-0.00535236
-0.00647453
-0.00752676
-0.00859488
-0.00970723
-0.0107914
-0.00129771
-0.00255104
-0.00369312
-0.00483931
-0.00585547
-0.00697616
-0.00797683
-0.00892444
-0.00987494
-0.0108661
-0.00182009
-0.00318067
-0.00436096
-0.00546928
-0.0064805
-0.00749483
-0.00842609
-0.00935069
-0.0101437
-0.0110339
-0.00298593
-0.00394134
-0.00526486
-0.00614678
-0.0071634
-0.00805173
-0.00890915
-0.00971649
-0.0104213
-0.0111545
-0.00358786
-0.00515283
-0.00618967
-0.00711456
-0.00797875
-0.0087301
-0.00942109
-0.010145
-0.0107499
-0.011313
-0.00547801
-0.00641338
-0.00727588
-0.00813528
-0.00882415
-0.00948559
-0.0100748
-0.0106397
-0.0111334
-0.0115057
-0.00698863
-0.00785666
-0.00852676
-0.00920651
-0.00978518
-0.0102914
-0.010791
-0.0112334
-0.0115702
-0.0117471
-0.00107979
-0.00159945
-0.00187201
-0.00191345
-0.00186213
-0.00178728
-0.00172613
-0.00174136
-0.00182624
-0.000278399
-0.00170855
0.00224058
0.00235223
0.00245527
0.00248143
0.00190505
0.00164217
0.00228942
-0.000125914
-0.000748436
0.000376161
-0.000479852
-0.000512082
-0.000786241
0.00021098
-0.000306504
0.000389834
0.000445619
-0.00042533
-0.000129127
0.000679661
-0.000478576
-0.000505348
0.00103969
0.000574677
-0.00043241
0.00108394
0.000481775
0.000520036
0.000361328
0.00159361
0.000878569
0.000931415
0.000989823
0.000990225
0.000972356
0.00091485
0.000854425
0.00115811
0.00104608
0.00125607
-0.00185491
0.000251283
-0.000758476
4.67343e-05
-0.00019495
-0.00046643
-0.00136487
-0.0016464
0.000414635
0.00141423
0.00100307
0.000756098
0.000568554
0.000721585
-0.00153961
-0.00147844
-0.00106347
-0.00146083
-0.00154644
-0.000529102
-0.00150987
-0.00144553
0.00125198
0.00180665
0.00170362
0.00106675
0.00183332
-6.83295e-05
0.000247416
0.000304268
0.00115758
0.00108344
0.0011317
-0.000526504
-0.00168763
-0.00106387
-0.00144504
0.00084565
-0.000738884
-0.00108955
-0.000911758
-0.000637815
-0.00105951
0.001271
0.000418747
0.00160923
0.00114295
-0.000400387
-0.00111884
0.00057448
-0.00125674
-0.000646776
-0.00107119
-0.00104996
0.00128413
0.00185067
-0.000291506
0.000984911
0.00123832
-0.0015622
-0.00197524
0.000981285
-0.000603161
-0.000366553
-0.000532609
0.000423403
4.01135e-05
-0.000793817
0.0010234
-0.00111642
0.000735179
0.00114505
-0.00112577
-0.00116725
0.00129836
0.00216162
0.00157193
0.00106572
0.000655323
0.000332127
7.7849e-05
-0.000123137
-0.00044057
-0.000605289
0.00274009
-0.000287737
-0.000560385
-0.000794632
-0.000675112
-0.000496745
-0.000187327
-8.93076e-05
-0.000323805
-0.00011505
-0.000240816
-5.94669e-05
0.000193189
-7.42195e-05
-0.000297386
-6.88005e-05
-0.000156488
-3.12501e-05
-2.67268e-05
-0.000119882
0.000886422
-2.16936e-06
0.000500536
0.000618785
-0.000299403
-0.000134206
0.000937637
-0.000239262
-3.47574e-05
0.000255879
0.000569712
-4.8796e-06
0.00178839
0.00157855
0.0012551
0.000850043
0.000414444
0.000218941
0.0027128
0.00228486
8.35849e-05
4.61038e-05
-0.000767405
-0.00013456
-0.000388047
-0.000165012
-0.00021621
-0.000292736
-0.00060226
-0.000700285
-0.000114118
-5.15769e-05
-5.39409e-05
-7.25256e-05
-9.36821e-05
0.00318948
0.000294168
-0.000120721
0.00136627
0.000937561
0.000583392
0.00194631
6.22945e-05
-0.000272994
-0.000163043
-0.000448114
-0.000610843
-6.19573e-05
-0.000317079
0.00151535
0.00241354
0.00200329
-0.000103158
-0.000158295
-0.000247565
-0.000217342
-0.000575437
-0.000496052
-0.000512305
-4.7034e-05
0.000504908
-9.37063e-05
0.000893686
0.00134453
-0.000257145
-0.000474081
-5.96853e-05
-0.000681342
-0.000397634
0.00120321
-0.000410395
-5.93072e-05
-0.000368209
0.000987251
0.000257607
5.1436e-05
-0.000528999
-0.000268599
0.00165821
-4.39427e-05
-0.000308277
-0.000418533
-0.000803344
-0.000147956
0.000824497
1.57528e-05
-0.000163167
0.000905308
-8.74986e-05
-0.000165914
4.19688e-05
-0.000178568
-5.96548e-05
-0.000266579
0.000519996
0.000788146
-0.00034795
0.00538148
0.00472197
0.00398363
0.00320444
0.00250649
0.00192505
0.00146597
0.000856022
0.00061611
0.00576552
0.00112384
-0.00325964
-0.00389489
-0.0038218
-0.00349134
-0.00228391
-0.0018204
-0.00294663
-0.000106228
0.00026431
-0.000495985
0.000860402
0.000357538
0.000190638
-0.000350411
-7.7546e-06
-0.00045209
-0.00049888
0.000182632
0.00191563
-0.00069928
0.00147214
0.00174463
-0.0016392
-0.000849748
0.00233568
-0.0015576
-0.000551395
-2.73637e-05
0.000763257
-0.00162435
0.0026944
0.00219897
0.00155008
0.000746259
-0.00011684
-0.000493959
0.00457784
0.00342629
-0.000880313
-0.00113055
0.000323115
-0.000522936
-1.91634e-05
-0.00038016
-0.000241082
-0.000122009
0.000161406
0.000248146
-0.000644325
-0.00151551
-0.00110984
-0.000900751
-0.00075635
0.00554144
0.00210874
0.00122217
0.00378289
0.00332047
0.00269524
0.00440912
0.00161658
0.000889502
-0.00158594
-0.00272125
-0.00295496
-0.00119131
-0.00247926
0.00305525
0.00459779
0.00370426
-0.00134442
-0.00146771
-0.0016663
9.04167e-05
0.000536389
7.15534e-05
0.00041983
-0.000939452
0.00173291
0.000887905
0.00268598
0.00331546
0.000538715
-0.00224531
-0.000539428
-0.00298442
-0.00197289
0.00279106
0.000298074
-0.000693264
0.000515576
0.00260791
0.00156956
0.0011363
-0.00236331
-0.0024344
0.00359221
-0.00107251
-0.00186773
0.000720329
0.000372114
-0.0012746
0.00223711
0.000392406
0.000201686
0.0013784
-0.000217373
0.000456347
-0.00089714
0.000748902
-0.000854309
-0.00178289
0.00215043
0.00272973
-0.00212118
-0.0617051
-0.0607485
-0.0611132
-0.061654
-0.0608516
-0.0637071
-0.0617682
-0.0611201
-0.0614286
-0.0638573
-0.0577242
-0.0490853
-0.033663
-0.0449652
-0.022775
-0.0554241
-0.0396454
-0.0526141
-0.0280748
-0.0597807
-0.0179132
-0.0205516
-0.0232047
-0.025913
-0.028873
-0.0152001
-0.0326196
-0.057722
-0.0582463
-0.0303762
-0.0393225
-0.0227733
-0.0451905
-0.0249626
-0.0486162
-0.0349338
-0.0431233
-0.0226642
-0.0201756
-0.0253532
-0.0580172
-0.0557273
-0.0568992
-0.0514222
-0.0568777
-0.0278095
-0.0385232
-0.0493755
-0.022082
-0.0200482
-0.0189225
-0.0158124
-0.0167237
-0.0168348
-0.0153221
-0.0150667
-0.0175389
-0.0171203
-0.0155317
-0.0161804
-0.0178115
-0.0169637
-0.0391824
-0.0552382
-0.0508448
-0.0453504
-0.0617641
-0.0589862
-0.0598401
-0.0595211
-0.0178525
-0.0525938
-0.0552499
-0.0597841
-0.0430516
-0.0332415
-0.0378036
-0.0273848
-0.0490087
-0.0265165
-0.0287433
-0.0206822
-0.023692
-0.0310168
-0.0216663
-0.0212878
-0.0221826
-0.0181453
-0.0205615
-0.0534447
-0.0409774
-0.0351401
-0.0179743
-0.056446
-0.0460355
-0.0368728
-0.0546712
-0.0523657
-0.0309685
-0.025605
-0.0230698
-0.0311602
-0.0209918
-0.0213413
-0.0258389
-0.0204886
-0.0151811
-0.0584993
-0.0264784
-0.0573324
-0.0402607
-0.0500635
-0.0281874
-0.0205735
-0.0582023
-0.058199
-0.0539467
-0.0347775
-0.0208744
-0.0309991
-0.059717
-0.0184018
-0.0579296
-0.0455648
-0.0187704
-0.0341777
-0.0180092
-0.0576135
-0.0617095
-0.0607791
-0.0611408
-0.0616865
-0.0608814
-0.0637253
-0.0617852
-0.0611456
-0.0614581
-0.0639149
-0.0577471
-0.0491366
-0.0338844
-0.0450554
-0.0230846
-0.0554451
-0.0397977
-0.0526424
-0.0283556
-0.0598141
-0.0182436
-0.0208311
-0.0234696
-0.0261695
-0.0291201
-0.0155607
-0.0328496
-0.0577249
-0.0582876
-0.0306795
-0.0395068
-0.0230467
-0.0453112
-0.0253271
-0.0486738
-0.0351585
-0.0432493
-0.0230458
-0.0204563
-0.0256267
-0.0580777
-0.0557738
-0.0568982
-0.0514598
-0.0569296
-0.0280812
-0.0387093
-0.0494397
-0.0223532
-0.0203931
-0.0192282
-0.0162024
-0.0170999
-0.0172208
-0.0156794
-0.0154655
-0.0180318
-0.0176137
-0.0159137
-0.0165618
-0.0182397
-0.0174181
-0.0393752
-0.0553278
-0.0509689
-0.0455102
-0.0617815
-0.059029
-0.0598712
-0.0595544
-0.0182917
-0.0526239
-0.055275
-0.0598166
-0.0431715
-0.0334776
-0.0379838
-0.0276872
-0.0490647
-0.026778
-0.0289957
-0.0209658
-0.0239627
-0.0312592
-0.0220793
-0.0217057
-0.0225642
-0.0184411
-0.0208356
-0.0534608
-0.0411499
-0.0353595
-0.0182817
-0.0564823
-0.0461224
-0.0370752
-0.054701
-0.0523973
-0.031249
-0.0258745
-0.0233444
-0.0314098
-0.0212659
-0.02175
-0.0261895
-0.0207668
-0.0155246
-0.0585327
-0.0268098
-0.0573833
-0.0404166
-0.0501108
-0.0284501
-0.0208567
-0.0582427
-0.0582136
-0.053983
-0.0350304
-0.0212455
-0.0312577
-0.0597337
-0.0187006
-0.0579713
-0.0456536
-0.0190519
-0.0344229
-0.0183069
-0.0576412
-0.0617419
-0.0607934
-0.061185
-0.0617457
-0.0609094
-0.0637566
-0.0618019
-0.0611565
-0.0615124
-0.0639188
-0.0578531
-0.049341
-0.0341239
-0.0452766
-0.0234867
-0.0555853
-0.0400284
-0.0528178
-0.028633
-0.0598874
-0.0185072
-0.0210821
-0.0236744
-0.0263206
-0.0292216
-0.0158565
-0.0329108
-0.0577533
-0.0582799
-0.0309311
-0.0397536
-0.0233454
-0.0453342
-0.0255794
-0.0488894
-0.0351988
-0.0434904
-0.0232896
-0.0208124
-0.0258429
-0.0580679
-0.0558453
-0.0569461
-0.0516403
-0.0569556
-0.0282318
-0.0387362
-0.0494798
-0.022687
-0.0206944
-0.0195672
-0.0165686
-0.017468
-0.0176108
-0.0160378
-0.0158386
-0.0185132
-0.0180669
-0.0162752
-0.0169353
-0.0186147
-0.0178597
-0.0394
-0.0553303
-0.0509688
-0.0455171
-0.06186
-0.059052
-0.0599318
-0.0596005
-0.0188519
-0.0527986
-0.05541
-0.0598852
-0.043403
-0.0337273
-0.0382236
-0.0279717
-0.0492719
-0.0269279
-0.0291044
-0.0212364
-0.02418
-0.0313411
-0.0223997
-0.0220016
-0.0229213
-0.0187986
-0.021181
-0.0535142
-0.0411676
-0.0354002
-0.0185877
-0.0565707
-0.0463502
-0.037324
-0.0548311
-0.0525709
-0.0315035
-0.0260645
-0.0236069
-0.0314915
-0.021622
-0.0220333
-0.0264531
-0.0210944
-0.0158677
-0.0586027
-0.027088
-0.0574191
-0.0406583
-0.0503103
-0.0285763
-0.0211555
-0.0582685
-0.0582275
-0.0541071
-0.0352802
-0.0215057
-0.0313402
-0.0597696
-0.019066
-0.0580266
-0.0458761
-0.019422
-0.0346727
-0.0186441
-0.0577362
-0.00614905
-0.00688456
-0.00268222
-0.00302663
-0.00688615
-0.00929448
-0.00852977
-0.0107034
-0.00737318
-0.00788438
-0.00459071
-0.00389209
-0.010053
-0.00567079
-0.00801969
-0.00320036
-0.00161081
-0.011792
-0.00609699
-0.00283006
-0.00302162
-0.00356657
-0.00985049
-0.00809146
-0.00839268
-0.00813256
-0.00955056
-0.00962699
-0.00949646
-0.00679099
-0.0124201
-0.0107732
-0.00804617
-0.0126107
-0.00977094
-0.00726086
-0.0134152
-0.0128189
-0.0109364
-0.00959705
-0.0166226
-0.0162677
-0.0149406
-0.0102264
-0.0113006
-0.0109383
-0.0163088
-0.0141121
-0.0160849
-0.0142628
0.00234171
0.00273624
0.00307392
0.00177211
0.000870844
0.00194137
0.00216239
0.00258077
0.00282334
0.00285056
-0.00408469
-0.00144841
-0.00484561
-0.00319608
-0.00551107
-0.00101466
-0.00133313
-0.00509015
-0.00934627
-0.00188785
-0.00563185
0.00392177
0.00408761
0.00558166
0.0032002
0.00340572
0.00496384
0.00321481
0.00406904
-0.0126592
-0.013718
-0.0124954
-0.0165841
-0.00899054
-0.0085785
-0.00885086
-0.0120525
-0.00885465
-0.0127675
-0.0113316
-0.0122737
-0.0139871
-0.0113498
-0.016367
-0.014326
-0.0131543
-0.0159157
-0.0133309
-0.016493
-0.0152444
-0.0196549
-0.0185063
-0.0182783
-0.0142028
-0.0137843
-0.0174126
-0.0173528
-0.0177448
-0.00336688
-0.0016763
0.00112512
-0.00412666
-0.00389659
-0.00243936
0.000223027
-0.000858364
-0.00604764
-0.00441349
0.00144193
-0.00133251
-0.00571597
-0.0100124
0.000760423
0.0010141
-0.0112265
-0.0155961
-0.0117677
-0.0137533
-0.0165017
-0.0140362
-0.0176278
-0.0166773
-0.0125883
-0.0158439
-0.0138073
-0.0121264
-0.014597
-0.0168836
-0.00868506
0.000876618
0.00182251
0.0011694
-0.0115966
-0.0115553
-0.0154036
-0.00498289
-0.00513111
-0.00536088
-0.00984329
-0.00330188
-0.00621102
-0.001541
-0.00674048
-0.00404057
-0.00740949
-0.00245774
-0.000373821
-0.00353392
-0.0075871
-0.00739678
-0.00454719
-0.0037904
-0.00189954
-0.000190599
0.00304833
0.00337389
0.0031918
0.00280348
0.00323498
0.00297442
0.00326916
0.0032363
0.00290477
0.00311031
0.00271465
0.00283204
-0.00276912
-0.00656482
-0.00627545
-0.0052199
-0.00804715
-0.00922272
-0.00399396
-0.0050483
-0.00175422
0.000275692
-0.0021509
-0.000861614
-0.00442051
-0.0150401
-0.00976037
-0.0119969
-0.0124311
-0.0131288
0.00449989
0.0024315
3.58128e-05
0.000554631
-0.00658764
-0.00820172
-0.00348371
-0.0075608
-0.00836648
-0.00802754
-0.0109422
-0.00507988
-0.00947797
-0.00945445
-0.0089272
-0.0141445
-0.0136704
-0.00949939
-0.00728947
-0.0118469
-0.00766497
-0.00368689
-0.00657001
-0.0075557
-0.0110017
-0.00824573
-0.0105238
-0.0120228
-0.00784379
-0.00666822
-0.0106913
-0.00902076
-0.00477542
-0.00599402
-0.0061932
-0.00353774
-0.00434924
-0.0137332
-0.0154354
-0.0135129
-0.0154067
-0.0123659
-0.0159011
-0.0116561
-0.0176732
-0.0128471
-0.0101678
-0.0209866
-0.0147391
-0.0137545
-0.0174816
-0.0137453
-0.0147659
-0.0113206
-0.0121528
-0.0173742
-0.0199604
-0.00145681
-0.0019075
-0.00505464
-0.00438797
-0.00458513
-0.00177551
0.00154299
-0.00195979
-0.0131002
-0.0167457
-0.00888537
-0.0154721
-0.0140429
-0.00613917
-0.00595343
-0.0157566
-0.00452865
-0.011483
-0.0153021
-0.00879288
-0.00870229
-0.00792547
-0.0129179
-0.0154042
-0.0174339
-0.0159773
-0.0128744
-0.0167507
-0.0222426
-0.0121247
-0.0164368
-0.0144995
-0.0147223
-0.0144382
-0.0104495
-0.00597202
-0.0103084
-0.00870959
-0.0124789
-0.0138341
-0.0104744
-0.00921379
-0.00661187
-0.000159759
-0.000323332
-0.00353486
-0.00020264
-0.00669339
-0.00839891
-0.01869
-0.0223062
-0.0212535
-0.0190986
-0.0155688
-0.0151069
-0.0156881
-0.0131592
0.000225399
-0.000511421
-0.000563105
0.00259416
-0.00252363
-0.00022093
0.001465
-0.00127089
-0.000275015
-0.00192368
0.00288344
0.0035549
0.00314213
0.00319154
0.0033677
0.00298959
0.00324413
0.00324883
0.00268258
0.00349792
0.00320688
0.00396654
0.00347761
0.00354328
0.00423951
0.00404944
0.00309806
0.00388026
0.00362393
0.000478924
0.0015378
0.00108628
0.00219392
0.0037561
-0.014919
-0.0123459
-0.0135812
-0.0122485
-0.0084327
0.00469312
0.00587672
0.00592812
-0.0101831
-0.00633844
-0.0123523
-0.0146638
-0.0140876
-0.0189763
-0.019877
-0.0189741
-0.0155188
-0.0159759
0.00424295
0.00398735
0.0030523
0.00203386
0.00423323
0.00426196
0.00559091
0.00421011
0.00555377
-0.00799045
-0.00704623
-0.0053079
-0.00618718
-0.00249015
-0.00368952
-0.0023739
-0.00854511
-0.00186656
0.00114999
-0.00243827
-0.00109646
-0.00868732
-0.00712221
-0.00682613
-0.00363887
-0.0076205
-0.00312019
-0.00663741
-0.00810766
-0.00925418
-0.0068779
-0.0116414
-0.00806073
-0.00947352
-0.0106675
-0.00611247
-0.00296445
-0.00229369
-0.00149769
-0.0119243
-0.0102362
-0.0105437
-0.0136959
-0.0138728
-0.0110359
-0.0174611
-0.0108701
-0.0101868
-0.021757
-0.0212447
0.00346076
0.00333631
0.00335476
0.000432538
0.00218907
0.000175442
-0.000238524
-0.00279318
-0.00329463
-0.00114925
0.00173721
0.000316724
-0.000800216
0.00222717
0.00219673
0.00401047
0.00398823
0.00428835
0.00378477
0.00519176
0.0038405
0.00542851
0.00551767
0.00430388
-0.00200913
-0.00534088
-0.0086548
-0.00931398
-0.00923948
-0.0131984
-0.0114713
-0.0136492
-0.00782577
-0.00978417
-0.010666
-0.00967511
-0.00960961
-0.0137953
-0.0138596
-0.0136857
-0.00925573
-0.0133018
-0.0182034
-0.017689
-0.0191032
-0.0123
-0.0158441
0.000600465
-0.00137485
-0.000710377
-0.000255156
7.47761e-05
0.00258019
0.0026427
-0.00933116
-0.00783195
-0.0118242
-0.0119212
-0.0121463
-0.00937996
-0.00587044
-0.00559746
-0.000332773
0.0012268
0.00184632
0.00194614
-0.00729319
-0.00109767
-0.00400518
-0.000740293
-0.0113597
-0.0113227
-0.0090289
0.00416307
-0.00148579
-0.00220673
-0.0015104
-0.00532022
-0.00310163
-0.00422351
-0.0162577
-0.00636668
-0.00584251
-0.000380101
-0.00351686
0.00229823
-0.00146388
-0.0130863
-0.0167753
-0.0173333
-0.010871
-0.0128388
-0.0099158
-0.0108491
-0.00876203
-0.0123253
-0.00902201
-0.00793822
-0.0190778
-0.0194671
-0.0164569
-0.0109252
0.00573535
0.00735805
0.00611704
0.00599221
0.00543162
0.00673365
0.0045069
0.00407061
0.0028913
0.00177846
0.00488004
0.00576216
0.007675
0.00672651
-0.00366029
-0.00566604
-0.000705382
-0.0012892
-0.00244969
-0.00231513
-0.00611653
-0.00675589
-0.00308216
-0.00643777
-0.00704374
-0.00700139
-0.00381488
-0.00347272
-0.00374444
-0.0110395
-0.0110653
-0.00869899
-0.0116563
-0.00633771
-0.00640752
-0.0102282
-0.00976867
-0.009786
-0.00719391
-0.00739973
-0.00822841
-0.0124266
-0.0120336
-0.0128341
-0.0084168
-0.010391
-0.00820296
-0.0116154
-0.0117486
0.001295
0.00138835
-0.000393708
0.00218939
-0.00576976
-0.00329164
-0.00781802
-0.00329384
-0.0118971
-0.0083
-0.012125
-0.0125117
0.00191371
-0.00162995
-0.00107419
0.00240008
-0.00539186
-0.0056671
-0.00323791
-0.0138941
-0.00501627
-0.00634131
-0.00649596
-0.00593596
-0.00321899
-0.00539608
-0.00500675
-0.00460611
-0.00205366
-0.00387457
-0.000862939
-0.00226066
-0.00194315
-0.00539188
0.00189315
-0.0028107
-0.00693417
-0.00481029
-0.00885882
-0.00370608
-0.00304618
-0.0101217
-0.0113795
-0.00957518
-0.0104866
-0.00521406
-0.000192413
-0.000825227
0.00156986
-0.00225966
0.00165742
-0.00442993
-0.00312811
-0.00305634
0.000694883
-0.00224926
0.000463175
0.00148189
-0.0079186
-0.00912648
-0.00436376
-0.00373464
-0.00356178
-0.00451752
-0.00817411
-0.0124062
-0.0110991
-0.0150405
-0.0148909
-0.00107859
-0.00999923
-0.0139424
-0.00943327
0.00237701
0.0027613
0.00257288
-0.00398046
-0.000202709
-0.00371448
-0.0034067
-0.00375338
-0.00360955
-0.00764536
-0.015503
-0.00213747
-0.00491216
-0.00410143
-0.00388112
-0.000107739
0.000528133
-0.00356509
0.00125485
0.00389268
-0.0036477
0.000567267
-0.00573524
-0.00295864
0.00062051
-0.000490083
-0.00891632
-0.01016
-0.0081848
-0.0121859
-0.00821846
-0.0102107
-0.0107161
-0.0134328
-0.0101556
-0.010376
-0.0102804
-0.0138259
-0.00728967
-0.00720334
-0.00706436
-0.0140336
-0.0121763
-0.0158898
-0.0165679
-0.0174556
-0.0121818
-0.0124669
-0.0129985
-0.0165712
-0.0160059
-0.0106303
-0.00712005
0.0013728
-0.00157716
7.51992e-05
-0.000835725
-0.0109717
-0.00327987
-0.0148351
-0.0129344
-0.00720223
-0.0109209
-0.010561
-0.0101229
-0.0192527
-0.0144558
0.00128669
-0.0070967
-0.0114003
-0.00949799
-0.00717326
-0.00721856
-0.011952
-0.0116435
-0.00637227
-0.0111864
-0.0133078
-0.0128108
-0.0131549
-0.0155555
-0.0168396
-0.00976051
-0.00997954
-0.00552018
-0.00483211
-0.00940817
-0.0203136
-0.0119842
-0.00660613
-0.00651339
-0.00767747
0.00256198
0.00551627
0.00230572
0.00251215
-0.0066025
-0.00895149
-0.0069714
-0.00828067
-0.00800016
-0.0102923
-0.0132521
-0.00912395
-0.0150446
-0.0091354
0.00317379
0.00436006
0.00132244
0.00551917
0.00169003
0.00277779
0.00147692
0.00129664
0.00488557
0.00140603
0.00194985
0.00267641
0.00256317
0.00238613
0.00163653
0.00103124
0.00167928
0.00212443
0.00155888
0.000898178
0.00200378
0.000302754
0.000674502
0.000154144
-0.0003416
4.96932e-05
-0.000825759
-0.00101983
0.000603833
-0.0013368
-0.000392424
-0.00152147
0.00663792
-0.00138856
0.00631921
0.00478492
0.00268156
0.00263198
-0.000225035
-0.000231683
-0.00100787
0.000126041
0.00240944
-0.00488183
-0.000907364
-0.00347844
-0.00590602
-0.0112036
-0.00807697
-0.00951653
-0.0132993
-0.0102047
-0.00264425
-0.00691415
-0.00852007
-0.00116124
-0.00315535
-0.00356455
-0.00467087
0.00194942
0.00467494
0.00278356
0.00120532
0.0031392
0.00642215
0.00373443
0.00203027
0.0054583
-0.00903623
-0.00529892
-0.0106816
-0.00652406
-0.00305723
-0.0107174
-0.0116976
0.00264238
0.00024599
0.000168773
-0.00553786
-0.00232582
-0.0122418
-0.0123522
-0.0160246
-0.0101381
-0.00929348
-0.00950385
0.00609394
-0.0100283
-0.0143614
0.00338416
0.00472923
-0.00742839
-0.00742145
-0.0102457
-0.0109221
-0.0125214
-0.00711313
-0.00478309
-0.00597961
-0.0046703
-0.00863646
0.00571865
0.00136158
0.00161079
-0.0173783
-0.0171078
-0.000363684
-0.00137692
-0.00632394
-0.00302233
-0.00105306
0.000652729
-0.00303613
-0.00656654
-0.00690519
-0.0074175
-0.00375082
-0.0172742
-0.0193783
-0.00111748
9.12252e-05
0.00213513
0.00275111
-0.000892349
-0.0129612
-0.00985235
-0.0125332
-0.0105403
-0.0163449
-0.0130541
-0.0151309
-0.0160711
-0.00529764
-0.0114279
-0.0141228
-0.00948855
-0.00854681
-0.017256
-0.0174733
-0.0196235
-0.0190314
-0.0197764
-0.0209948
-0.0105724
-0.00977967
-0.00704665
-0.0112882
-0.00705068
-0.0101616
-0.0034143
-0.00542603
-8.19296e-05
-0.00193135
-0.00806113
-0.0039751
-0.00485734
0.000772054
-0.00170678
0.00120734
-0.0175693
-0.0154362
-0.00560656
-0.00473989
-0.00477651
-0.00161399
-0.0164971
-0.0125501
-0.018217
-0.0175579
-0.0155842
-0.00683924
-0.0100337
-0.00440322
-0.00447208
-0.00534183
-0.00414611
-0.00150456
-0.00171622
-0.00353333
-0.00556278
-0.0111031
-0.0128896
-0.0109317
-0.00741464
0.00320727
0.00183488
0.00254693
0.00213224
0.00221365
0.00181647
0.00133809
0.000974828
-0.00987406
-0.0122859
-0.00490339
6.05273e-05
-0.00325337
-0.0162714
-0.0152873
-0.0185406
-0.0145025
-0.0179826
-0.0193502
-0.0188911
-0.0039885
-0.00898401
-0.00864684
-0.0101356
-0.00632833
-0.00624946
-0.00677095
-0.00787847
-0.00856096
-0.00765038
-0.0129811
-0.00729121
-0.00956529
-0.011243
0.00140261
0.00245354
0.00146702
-0.0088096
-0.0021405
-0.0037573
0.00396745
0.0037958
0.00296954
0.00347524
-0.00885537
-0.00480947
-0.00444876
-0.00883742
-0.0044242
-0.00498813
-0.00524955
-0.00803432
-0.00922389
0.003007
0.00306976
0.0034343
0.00292648
0.00317448
-0.000306604
-0.0025309
6.80305e-05
0.000317764
0.00333489
-0.0118311
-0.0105059
0.00051147
0.000462797
-0.0134759
-0.0159438
-0.0105787
-0.0161264
-0.0157091
-0.0160225
-0.0154678
-0.0123198
-0.0149057
-0.00739855
-0.0111833
-0.016313
-0.0156153
0.00430036
0.00443528
0.00297229
0.00278277
-0.00652993
-0.0127283
0.000740694
0.00119385
-1.22919e-05
0.00324638
-0.000529534
-0.000306019
-0.00971427
-0.00515899
-0.000797742
-0.00186354
-0.00492656
-0.00821383
-0.00190269
-0.00574064
-0.00532937
-0.00814045
-0.00976669
-0.00939251
-0.00783412
-0.00347525
-0.00762064
-0.00361548
-0.000338727
-0.00567459
-0.0195048
-0.020126
-0.0182904
-0.0136755
-0.0048979
-0.00388562
-0.000458643
-0.00412497
0.00346002
0.00280501
0.00108497
0.0057815
0.0058339
0.00532146
0.000269926
8.2299e-05
-0.00128933
-0.0024664
-0.0079828
-0.00660777
-0.00778501
-0.00982938
-0.0057559
-0.00584664
-0.00435111
-0.0050506
-0.00530114
-0.00766158
-0.00628972
0.000580701
-0.00397575
-0.00217854
-0.00146878
0.00288634
0.00294609
0.00366603
0.00295402
0.00247326
0.00325791
0.00457391
0.00519219
-0.00161597
-0.00115756
-0.000863393
0.00654546
0.000882725
-0.000456027
0.000126756
-0.0151063
-0.00698592
-0.00326396
-0.00313215
0.00131693
-0.00202087
0.00205225
-0.00516371
-0.0105132
-0.013636
-0.00967334
-0.0152509
-0.0138455
-0.0122947
-0.0151275
0.00328149
0.00306489
0.00303049
0.003171
0.00342734
0.0034072
0.00314939
0.00184855
0.00350722
-0.0184266
0.00139003
-0.000604992
0.00125781
0.000846827
-0.0162389
-0.00026543
8.56192e-05
-0.0012902
-0.00158523
0.00353728
0.0046435
0.00253428
0.00381076
0.00368769
0.00473633
0.00427166
0.00499271
0.00343017
0.00456738
0.00278228
-0.000487259
-0.00232369
0.00242982
0.00342827
0.00419322
0.0024039
0.00263603
0.00360649
0.00131423
0.00427491
0.00408596
-0.0003624
-0.0052229
-0.00191571
-0.00206191
-0.00724382
-0.00990262
-0.00728292
-0.0073669
0.00182958
-0.00162806
-0.00469412
-0.00132823
-0.00156774
-0.0010438
0.00174983
-0.0140044
-0.0168851
-0.017904
-0.0201211
-0.0160372
-0.0202224
-0.0189954
-0.00411923
-0.000918304
-0.00585169
-0.0023715
0.00341534
0.00427366
0.00421419
0.00407833
0.00427904
0.00275776
0.00255213
0.00331408
-0.00560908
-0.0100201
-0.0111617
-0.0154129
-0.0105257
-0.00871614
-0.0129423
-0.00345383
-0.00345646
-0.00354843
-0.00379572
-0.00327153
-0.00407693
-0.00824727
-0.00473473
-0.00690555
-0.00953874
-0.0102517
-0.00913459
-0.00378343
-0.00675608
-0.0148219
-0.0162203
-0.0190294
-0.00742818
0.000394852
0.00112573
-0.00287268
-0.00369354
0.00120983
-0.00778949
0.00155741
0.00200932
0.00290968
0.00350023
-0.00296558
-0.000524379
0.00230917
0.00562999
0.00511682
0.00273425
0.00441937
0.00394817
0.00513543
0.00581984
0.00638928
0.00445857
0.00554066
0.00710523
0.0058962
-0.00584305
-0.0095231
-0.00535643
-0.00577761
-0.00623662
-0.00885693
-0.00782118
-0.00726889
-0.0117259
0.00806981
-0.0135331
-0.014836
-0.0134253
-0.0123708
0.00722843
-0.014581
-0.0142761
-0.00991266
-0.0109101
-0.0139762
-0.0103278
-0.0199582
-0.0174281
-0.0143115
-0.0170685
-0.0196063
-0.0113994
-0.0137506
0.0027058
0.00204298
0.001983
0.00209987
-0.00690164
0.00384534
0.00278296
0.00214978
0.00123404
0.0015629
-0.0150197
-0.0174823
-0.0188076
-0.014854
-0.0184678
-0.012343
-0.0156095
-0.0117966
-0.0156678
-0.0125399
-0.0162803
-0.0134842
-0.01419
-0.0189123
-0.011457
-0.00966141
-0.0109848
-0.00755023
-0.00677864
-0.0102139
-0.00648235
-0.0103348
-0.00292757
-0.00726863
-0.00345257
0.00268509
0.00257969
0.00352908
-0.00214558
0.00147714
0.00159368
0.000641454
-0.000739004
0.00153713
-0.00245328
-0.00431677
-0.00464046
-0.00823483
-0.00356555
-0.00913911
-0.00533471
-0.00803433
-0.000922538
-0.000328123
-0.00310192
-0.00453957
-0.00456794
-0.00423876
0.00584239
-0.000318679
0.00379755
0.00152133
0.00169829
-0.000348865
0.00181045
0.000307524
2.06652e-05
0.0037722
0.00371703
0.00360945
-0.016224
-0.0186607
-0.017988
-0.0139888
-0.0147294
-0.0186849
-0.0137072
0.00393775
-0.0107617
0.00509302
-0.0117751
-0.00696061
0.00216987
0.00367777
-0.0180445
-0.00423647
-0.00185017
5.6521e-05
-0.00612199
0.00353891
0.0039964
0.00352203
0.00117008
-0.0167332
0.00350057
0.00265568
0.00272881
-0.0161651
0.00245583
0.00167806
0.00302605
0.00282216
-0.00793083
-0.00762853
-0.00717347
-0.00532114
-0.00725859
-0.0100998
-0.00749174
-0.0074016
-0.0103357
-0.013784
-0.00785439
-0.00395539
-0.00426153
-0.00675135
-0.00727588
-0.0163255
0.00333392
-0.0128011
-0.0162935
-0.0131058
-0.0106832
-0.00989339
0.00358339
0.0036023
0.0039615
0.00371704
0.00127593
-0.0167334
0.00513291
0.0048327
-0.00670422
-0.00313047
-0.00415987
-0.00424768
-0.00993313
-0.00716884
-0.00718653
-0.0104738
-0.00817355
0.000839991
-0.00763873
-0.00317552
-0.00369444
-0.0114526
-0.0121302
-0.0124286
-0.0097243
-0.0125173
-0.011433
-0.00310217
-0.000724729
-0.000349814
-0.00326947
0.00206761
0.00211786
0.0022368
0.00205742
0.00206401
0.00241967
0.00347519
0.00719096
0.00398797
0.00333876
0.00466413
0.00234452
0.00329061
-0.0113045
-0.0109397
-0.009132
-0.0181058
-0.0135899
-0.0135918
-0.00410578
-0.00978335
-0.00940304
-0.00849594
-0.00774632
-0.00834438
-0.0159798
-0.00951348
-0.0147257
-0.011031
-0.00587084
-0.00554093
-0.00460808
-0.00620374
-0.00929356
-0.00706347
-0.0186637
-0.017781
-0.00630608
-0.00715409
0.0025386
0.00288515
-0.00456573
-0.00510509
-0.00415472
-0.00331604
-0.00225813
-0.00557519
-0.00734319
-0.00673296
-0.00251607
0.000257936
-0.00515454
-0.00452031
-0.00421062
0.00244149
-0.00657887
-0.00629426
-0.00788022
-0.00400448
-0.00360896
-0.00675857
-0.00272779
0.0017181
-0.000565979
-0.00179274
-0.00237993
0.00223636
0.000339549
-0.00294874
-0.00958947
-0.0106837
-0.00852695
-0.017718
-0.00472839
-0.00730355
-0.0224012
-0.0186914
-0.019927
-0.0225905
0.00274006
0.00202514
0.00180093
0.00436944
0.00414433
0.00147981
0.00347056
0.00428219
0.00157428
0.0036659
0.00189513
0.0042441
0.00106401
0.00111192
0.00420317
0.000433306
0.00463134
-0.00990494
-0.0127056
-0.00541243
-0.00605858
-0.0104771
-0.00257407
-0.00706652
-0.00869629
-0.00812801
-0.0116205
-0.00740896
-0.0137554
-0.0135367
-0.00676605
-0.00315961
-0.0201257
-0.0171176
-0.0184281
-0.0201077
-0.020478
-0.0200164
-0.0200266
-0.0120682
-0.0129439
-0.0128997
-0.0130723
-0.00250197
0.00105215
-0.000455589
-0.000853635
-0.000216456
-0.00562491
-0.00624697
-0.0169542
-0.0209901
-0.0209878
-0.00436992
-0.0125228
0.00136947
0.00267474
-0.0132344
-0.0123663
-0.0133358
0.00219997
-0.0210604
-0.0195215
-0.0215366
-0.017864
-0.00556111
-0.00574329
-0.00177503
-0.0053105
-0.00646287
-0.00304729
0.00197179
0.00160415
-0.000365969
0.000548728
0.00188248
-9.62849e-05
-0.00671863
-0.00981844
-0.00582452
-0.00665199
-0.00520581
-0.00581036
-0.001635
-0.0193291
-0.0200652
-0.0194153
8.69067e-05
0.000295518
-0.00446583
-0.00363692
-0.00313039
-0.00793068
-0.0110335
-0.0135546
-0.0120014
-0.014181
-0.00641702
-0.0102674
-0.0195739
-0.0162912
-0.0138822
-0.0132299
-0.0141148
-0.0131032
-0.0138527
-0.00234608
-0.000556316
0.00113902
-0.00645632
-1.94807e-05
5.06197e-05
-0.0189052
-0.0184598
-0.0195426
-0.016565
-0.00469805
-0.0018132
-0.0151028
-0.0159309
-0.000454985
-0.00226892
0.00270717
-0.0103635
0.000398525
0.000924673
0.00146706
-0.00698605
-0.00689903
-0.00745494
-0.0103431
-0.0022075
0.000501806
0.00053151
0.0036076
0.000923078
0.00113409
0.00330968
-0.0163306
-0.0139792
-0.00930467
-0.00939184
-0.0102095
-0.0179463
-0.00817336
-0.00486533
-0.0101433
-0.00213861
0.00556046
0.00442119
-0.000410521
0.00279341
0.00387133
-0.00262231
0.000761087
0.000616604
-0.00210481
-0.00208656
-0.00614724
-0.00328321
0.00161322
0.00141255
0.0021855
-0.0014685
-0.00192914
0.00249735
-0.00107497
-0.00476258
-0.00529085
-0.0193629
-0.0189074
-0.0193164
-0.018378
-0.00606016
-0.00275928
-0.00652301
-0.00604483
0.00398552
-0.00479289
-0.00880464
-0.00749679
0.000159856
0.00275529
-0.00491383
-0.00708239
-0.0206242
-0.0193798
-0.0200823
-0.021032
-0.0136417
-0.0181014
0.00501657
-0.010672
-0.00999026
-0.0105345
-0.0106558
-0.0132354
-0.0137814
-0.00659702
-0.00965667
-0.0182739
-0.0165278
-0.00782267
-0.00557926
-0.00376781
-0.0105585
-0.00691744
0.000628663
0.00144672
0.000444405
0.00193044
-0.00701944
0.00286126
-0.0150084
-0.00665964
-0.010392
-0.004982
-0.0159125
-0.00483592
-0.00736047
-0.00582814
-0.00236034
-0.00341658
0.00194122
0.00209409
-0.00247687
0.00442673
0.00339374
0.00310484
0.00401342
0.00413755
-0.0211972
-0.0160638
-0.02055
-0.00885033
-0.0102357
-0.00140921
-0.0221686
-0.00957754
-0.00504577
-0.0044547
-0.00777812
-0.0016864
0.00289229
0.00286812
0.00119582
0.00102097
-0.00079084
-0.000774269
-0.000201995
0.00207544
-9.97013e-05
0.000640297
-0.00228758
-0.000609595
0.00214088
0.00248599
-0.000742684
0.00334911
0.00336691
0.00312155
0.0031509
0.00123853
0.00397296
-0.00288717
-0.00316567
0.00175124
-0.00700214
-0.0140457
-0.0132227
0.000326623
0.000664523
-0.00152055
-0.00216966
-0.0167732
-0.0140985
-0.00398115
-0.0174479
-0.00110337
0.00269062
-0.0167207
-0.0170205
-0.0139719
-0.0167579
-0.0108707
-0.0198919
-0.000523712
0.00313542
-0.001095
0.000556718
-0.000346055
0.0028943
0.000549613
0.00289593
-0.00331549
-0.0048498
-0.00187596
-0.00496278
-0.00243982
-2.70223e-05
0.000257721
0.00222448
0.00253757
0.00425958
0.00387383
0.000613046
-0.000151801
0.000460081
-0.00577965
-0.00564939
-0.0064015
0.00253484
-0.0046077
-0.0053436
-0.00503773
0.00184695
-0.00914197
-0.00932215
0.00523682
0.000939263
-0.00107896
-0.00102878
-0.003089
-0.00644692
-0.0063018
-0.00625335
-0.00476821
-0.0143397
0.00197703
0.00323586
0.00247522
0.0033068
0.00294586
0.00139842
0.0020887
0.000859864
0.00148888
0.000816584
0.00246305
0.00469268
0.00427173
0.00444227
0.00342735
-0.000462194
0.00375981
0.00298488
0.00105803
0.00119411
-0.00057513
0.00062139
-0.00859524
-0.0130788
0.00479562
0.00514466
-0.00623317
-0.00807354
0.00407901
0.00397147
-0.00982106
-0.00627473
-0.00994978
-0.0109684
-0.00658788
-0.00434535
0.00162272
0.000629004
-0.00998391
-0.0146747
-0.000982184
-0.00113623
-0.00178403
-0.00404799
-0.00315407
-0.0036071
0.000769903
-0.000453444
-0.00019137
0.00151326
0.00111526
0.000746106
0.00574112
0.0050062
-0.0154567
-0.0154359
-0.014869
-0.0144771
-0.0155211
-0.00959933
-0.00645616
-0.00082759
0.00113703
-0.0120017
-0.0140439
-0.0143452
-0.0143406
-0.013351
-0.0137746
-0.00998521
-0.0224843
0.00493194
-0.00537965
-0.00337884
-0.00307898
-0.00506158
-0.00521129
0.00243326
-0.00867827
-0.00473465
-0.00594963
-0.016927
0.00149012
-0.00992617
0.00210283
-0.0194115
-0.0104277
-0.0147818
0.00163287
-0.00928079
-0.0109745
-0.0096297
-0.0107424
-0.0103623
-0.0116835
-0.00120503
-0.00193809
-0.0162513
-0.00664575
-0.00616465
-0.00613128
0.000921819
0.00025186
-0.0038045
-0.0198591
-0.00741476
-0.00764446
0.00401257
0.00359305
-0.0126078
-0.0124781
-0.0180227
-0.0186797
-0.0172487
0.00185073
0.00161273
0.0014707
0.00182919
0.000603592
0.000845054
0.000203691
0.00363252
0.00247289
0.00180567
-0.00959409
0.00378231
0.0016655
0.00034452
-0.00435536
0.00157287
-0.00365865
-0.00579962
-0.000623102
-8.60342e-05
-0.000994934
-0.0188033
-0.0216976
-0.00416057
-0.00506358
-0.00457458
-0.00466815
-0.00985236
-0.00955224
-0.00584418
-0.000832441
-0.00258308
-0.00454445
-0.0121981
-0.0169336
0.00507905
-0.00520837
-0.00682651
-0.00928517
-0.00794559
-0.00136543
-0.00226498
-0.0108201
-0.00347151
-0.00563126
-0.00238302
-0.00356755
-0.00597611
-0.00691593
-0.00753672
-0.00602074
-0.00606639
-0.0070231
-0.00423182
-0.00108056
0.000443966
-0.00155483
-0.00627803
0.00251066
0.0032666
-0.00452912
0.0030328
-0.00200643
0.000706595
-0.0175028
0.00503082
0.00234165
-0.0118027
0.00290905
0.00450567
-0.0099859
-0.0114099
-0.0116979
-0.0111189
0.00108124
-0.000635304
-0.0133269
-0.0142287
0.0010915
-0.0156857
-0.0167528
-0.0185521
-0.00662151
-0.021257
-0.00637986
-0.00265793
-0.00960788
-0.0117576
-0.0125635
-0.00280567
-0.000173974
0.00289215
0.00369609
-0.00500807
-0.00422197
-0.00104625
-0.000821243
0.000383589
-0.0142646
-0.0124495
0.00209969
0.000939978
-0.00105457
-0.0109543
-0.00249289
-0.00343929
0.00177178
0.0027793
-0.000609326
-0.000818273
0.00254856
0.00284976
0.000796481
-0.00583199
-0.0014582
-0.0102109
-0.0100728
0.000867202
0.000138467
0.00480297
-0.0141576
0.00303109
-0.010845
-0.00702076
-0.00704444
0.00166841
-0.00820164
-0.00618254
0.00524234
0.00291788
0.00308401
0.00606732
0.00691851
-0.00238137
-0.00356392
-0.00994487
-0.0102678
-0.00848853
-0.00970796
-0.00689779
0.00490026
-0.00448026
-0.00304124
-0.00644268
-0.00875443
-0.00995497
-0.0209634
-0.0222462
-0.00110138
0.00151131
-0.0192924
-0.00136386
-0.0164123
-0.0196408
-0.0196833
-0.0189364
-0.0192808
0.00512662
0.00468617
-0.00661551
-0.00659112
-0.00600895
-0.00570288
-0.0210314
0.00501676
-0.00890789
-0.0117106
-0.00931367
-0.00737557
-0.0109968
-0.0107645
-0.0048052
-0.00314523
-0.00232344
-0.0154753
-0.00239927
-0.00189366
-0.0157938
-0.0166391
0.00566909
-0.0207875
0.000534292
0.00113023
0.000256038
-0.00584679
-0.0205436
-0.0204825
-0.013421
0.000274709
-0.00624371
-0.00662244
-0.0159789
-0.0213507
-0.0063468
0.00262752
0.00299234
0.00249598
0.00301119
-0.0121403
-0.00124321
-0.00254286
-0.0149463
-0.00445762
-0.0119729
-0.0143389
-0.00636455
-0.0145721
-0.0158464
-0.00422947
-0.00704183
-0.00223844
-0.010399
0.00302015
0.00328044
-0.0171765
-0.00969484
0.000101188
-0.0139675
-0.012706
-0.0123906
0.00438847
0.00442628
0.0033145
0.00374612
0.00349094
0.00520772
0.00255468
-0.00626477
-0.00612858
-0.0201124
-0.0207008
0.00237063
0.0023631
0.00171317
-0.0209021
0.00161243
-0.00180061
-0.00106625
-0.00247449
-0.00463044
-0.0138095
-0.0101035
-0.0144769
-0.0152923
-0.010718
-0.000591712
0.00241025
-0.0191944
0.0030764
-0.00225284
-0.00436245
-0.00913731
-0.00545323
0.00124295
-0.0193524
-0.0162771
-0.00116297
-0.000927287
0.00512883
0.00216545
0.00216409
-0.00829845
-0.00900225
0.00672811
0.00609938
0.00615898
0.00432043
0.00470223
-0.0047064
0.0051484
-0.0173004
0.00262061
-0.0127332
0.00562884
0.0033809
0.00249238
0.00339621
-0.0147291
-0.00190669
0.00262208
-0.013591
-0.00817204
-0.0154373
-0.00106697
-0.0162856
-0.00961381
-0.00631719
0.000946373
0.00378322
-0.00133292
-0.000166052
-0.00576891
0.00183933
-0.0104322
-6.23421e-05
0.000323101
-0.00706873
-0.00333427
-0.0219437
0.00323323
0.00357529
0.00284812
-0.0041065
-0.007931
-0.00791056
-0.00567748
-0.0201912
0.00196963
0.00267695
-0.00394778
-0.0198715
-0.0199537
-0.0194236
-0.0194554
-0.019813
-0.0159931
-0.0172154
-0.00690882
-0.00769021
-0.00381519
-0.000472199
-0.00311264
-0.00311717
0.00300314
0.000658656
-0.00646105
-0.00571489
-0.0113338
-0.0174538
0.00326645
0.000265453
-0.0098733
-0.00355311
-0.015797
-0.0117126
0.00263237
-0.0121095
-0.00634757
-0.0136165
0.000106935
-0.000278873
0.000360746
0.00246742
0.00346061
0.00255261
0.00127099
-0.0107095
-0.00944659
-0.0099451
-0.0010822
-0.0123925
-0.0128617
0.00154484
-0.0110586
-0.0122144
-0.0121447
-0.00499772
-0.00205083
0.00288601
-0.0142214
-0.00273462
-0.0141581
-0.0112299
-0.000963341
-0.0174587
0.000839141
0.000656069
-0.0193613
-0.0089826
0.00284073
0.00386155
0.00359841
0.00262123
0.00273038
-0.0224583
-0.0202922
-0.00891395
-0.000757252
0.00140395
-0.00546827
-0.00769107
-0.0129695
-0.0186803
0.000467498
-0.00772871
-0.0012366
0.0026438
0.0015377
0.00202612
-0.00713719
-0.0225143
-0.0224086
-0.00904163
-0.00552169
-0.0200283
0.00199945
-0.0223357
-0.0222554
0.00221504
0.00245655
0.000333208
-0.0218882
-0.022299
0.000335652
-0.00307005
-0.00383267
-0.00153981
-0.00353244
0.000139255
-0.000689947
0.0011195
0.00182683
0.0017825
-0.0062871
-0.00915429
-0.00837982
-0.00926533
-0.0104355
-0.00747446
0.0008603
-0.00064349
-0.0217607
-0.0193047
-0.0212729
-0.0200834
-0.00989729
-0.00900204
-0.00582739
-0.0122849
-0.0152222
0.000292445
-0.00693313
-0.020245
0.00165557
0.00223595
0.000595897
0.00108316
-0.00720529
-0.00617181
-0.0032282
-0.00979613
-0.0102391
-0.0138331
-0.00170882
0.000649311
-0.000757672
-0.0105488
-0.000632589
0.00233119
0.00167857
-0.000738947
0.00262496
-0.0194223
-0.000389167
0.00388327
0.00252701
-0.00224838
0.00210854
0.00368524
0.00388162
0.00709009
0.00766799
0.00327069
-0.00578725
-0.00741349
0.00276548
-0.00501499
-0.000134926
0.0025382
0.00228791
-0.00306067
-0.0039636
0.00145225
0.00161741
-0.00418271
0.00347691
-0.007011
0.00729855
0.00660358
-0.00256849
0.000457016
0.000129122
0.0021044
0.00542442
-0.00602964
-0.0197165
-0.00985408
0.00235181
0.00219484
-0.00661176
-0.00201448
-0.00134183
-0.00664166
-0.0001842
-0.00139581
0.00249284
-0.000407602
0.00183413
0.00102647
0.00187251
-0.00292368
-0.0116865
-0.0110373
0.00272075
0.00120993
-0.000833543
-0.00270685
0.00206998
0.0028296
0.00139614
0.00186076
0.00477237
0.0092733
0.00781924
0.00709852
-0.0042354
0.0059842
-0.00329415
-0.0116138
0.00260962
0.00397454
-0.0146367
0.00267388
0.00261717
0.00270561
0.00600687
0.00243631
0.00263343
-0.00632318
-0.00720278
-0.000880048
0.00373139
0.00457904
0.00315001
-0.0106559
0.00175981
0.00257302
-0.00745545
-0.00877436
-0.0117984
0.00479276
-0.00121849
-0.0103157
-0.00146413
-0.007664
0.00220599
-0.0109829
-0.00830093
0.00240218
0.00445194
-0.00516283
-0.00569766
-0.00736535
0.00202536
0.00131006
-0.0110019
-0.00244024
0.000466497
0.00279474
0.00576312
-0.0138922
-0.00255608
0.00126551
0.0043021
0.00262368
-0.00553678
-0.000207438
-0.0032212
0.0032031
-0.00429922
-0.00792775
0.00427236
0.00264416
0.00349908
0.00450581
0.00169906
0.00252612
0.000481399
0.00213704
0.00263325
-0.000388688
0.00630254
0.0064411
-0.00834426
-0.00910526
-0.0103349
-0.00404823

SCALARS u_z double 1
LOOKUP_TABLE  table3
0
0
0.051886
0.0494992
-0.00224824
-0.000528561
0.000906852
-0.0473165
-0.000832985
0.00064956
-0.00121534
-0.0582264
0
0
-0.670908
-0.628933
-0.601876
-0.600545
-0.65472
-0.653739
-0.625182
-0.809761
-0.812304
-0.839517
-0.881955
-0.868352
-0.864513
-0.835731
-1.69898
-1.99538
-1.99538
-1.69898
-1.4892
-1.4892
-1.50958
-1.50958
-1.16752
-1.1675
-1.14831
-1.14828
-2.03617
-2.03617
0.0707171
0.078013
0
0
0
0
0
0
0
0
0
0
0
0
0
0
0
0
0
0
0
0
0
0
0.0541885
0.0526862
0.0515521
0.0505338
0.0494123
0.0484922
0.0472852
0.0474031
0.0483517
0.0480681
0.0479331
0.0487686
0.0488385
0.0497599
0.0378611
0.0272057
0.0187251
0.0120746
0.00700024
0.00334232
0.000905514
-0.00060042
-0.00146127
-0.0019128
-0.00212058
-0.00220879
-0.00223978
-0.00202901
-0.00172306
-0.00135849
-0.000994629
-0.000681026
-0.000447673
-0.000318278
-0.000293343
-0.000353989
-0.000456203
-0.000511064
-0.000455946
-0.000208688
0.000242178
0.00134779
0.00252513
0.00475747
0.008346
0.0135342
0.0205756
0.0297919
0.0411428
-0.0281632
-0.00201539
0.0229513
0.0301838
0.00582493
-0.0185935
-0.00150478
-0.00171916
-0.00194028
0.00034285
5.88226e-05
-0.000223571
-0.000781842
2.93346e-05
0.000845159
0
0
0
0
0
0
-0.0359094
-0.0267087
-0.0192054
-0.0130275
-0.00820546
-0.00472502
-0.00249625
-0.00129494
-0.000116431
0.000367363
0.000621426
0.000662689
0.00053912
0.000406611
0.000303032
0.000240417
0.000188909
0.000101181
-6.2978e-05
-0.000301708
-0.000588142
-0.000894287
-0.00122661
-0.00128833
-0.00147893
-0.00189068
-0.00267229
-0.0040071
-0.00613209
-0.00930166
-0.0137303
-0.0194796
-0.0265399
-0.0349727
-0.0453629
-0.0594815
-0.060438
-0.0585881
-0.0573249
-0.0566301
-0.0551685
-0.0533208
-0.0533433
-0.0528301
-0.0527932
-0.0531122
-0.0520508
-0.0515092
-0.049544
0
0
0
0
0
0
0
0
0
0
0
0
0
0
0
0
0
0
0
0
0
0
-0.667188
-0.664998
-0.663128
-0.661727
-0.660694
-0.659645
-0.657983
-0.654964
-0.650069
-0.643787
-0.636436
-0.621407
-0.6151
-0.609892
-0.60569
-0.602335
-0.602982
-0.603605
-0.603966
-0.603994
-0.603704
-0.603049
-0.601971
-0.60361
-0.606869
-0.610145
-0.61336
-0.616463
-0.619644
-0.623001
-0.626533
-0.630307
-0.634152
-0.638181
-0.642132
-0.646103
-0.650276
-0.658556
-0.661228
-0.663092
-0.664436
-0.665354
-0.665946
-0.666188
-0.666307
-0.666474
-0.66683
-0.66747
-0.66864
-0.656665
-0.657347
-0.656747
-0.655559
-0.653446
-0.650608
-0.646958
-0.642715
-0.638231
-0.633544
-0.629153
-0.62211
-0.61968
-0.618022
-0.617422
-0.617702
-0.619397
-0.622607
-0.627191
-0.63363
-0.641042
-0.648481
-0.783436
-0.730939
-0.678167
-0.70572
-0.758193
-0.811106
-0.785741
-0.733095
-0.680452
-0.721938
-0.7746
-0.82746
-0.759782
-0.707194
-0.654555
-0.758012
-0.705788
-0.653279
-0.709425
-0.762964
-0.815833
-0.811419
-0.812731
-0.813559
-0.813997
-0.814101
-0.813854
-0.813314
-0.81272
-0.816139
-0.820383
-0.825634
-0.831971
-0.847043
-0.854439
-0.860779
-0.865738
-0.868822
-0.870541
-0.871638
-0.872712
-0.874144
-0.876035
-0.878236
-0.879687
-0.878523
-0.877898
-0.877571
-0.87745
-0.877396
-0.877241
-0.876764
-0.875971
-0.87478
-0.873119
-0.870839
-0.863093
-0.858769
-0.854394
-0.849993
-0.845569
-0.841167
-0.837046
-0.833174
-0.829521
-0.826041
-0.822659
-0.819361
-0.816104
-0.812754
-0.859187
-0.851697
-0.844233
-0.83773
-0.83305
-0.829715
-0.827879
-0.827474
-0.827969
-0.829659
-0.832291
-0.840142
-0.844888
-0.84974
-0.854206
-0.85833
-0.861824
-0.864551
-0.86657
-0.867695
-0.86824
-0.867502
-1.75322
-1.80616
-1.85576
-1.90012
-1.93754
-1.96657
-1.9861
-1.99538
-1.99538
-1.99538
-1.99538
-1.9861
-1.96657
-1.93754
-1.90012
-1.85576
-1.80616
-1.75322
-1.69898
-1.69898
-1.69898
-1.69898
-1.4892
-1.4892
-1.4892
-1.4892
-1.54164
-1.59409
-1.64653
-1.64653
-1.59409
-1.54164
-1.49328
-1.49735
-1.50143
-1.5055
-1.50958
-1.50958
-1.50958
-1.50958
-1.5055
-1.50143
-1.49735
-1.49328
-1.45255
-1.39552
-1.33849
-1.28147
-1.22448
-1.16746
-1.16744
-1.16743
-1.16744
-1.22448
-1.28147
-1.33849
-1.39551
-1.45255
-1.16358
-1.1597
-1.15586
-1.15208
-1.1483
-1.14829
-1.14829
-1.14828
-1.15204
-1.15583
-1.15965
-1.16354
-1.09148
-1.0347
-0.978014
-0.921448
-0.865249
-0.92229
-0.977521
-1.03311
-1.0888
-1.14452
-1.20025
-1.25598
-1.31171
-1.36743
-1.42315
-1.47888
-1.53461
-1.59033
-1.64606
-1.70179
-1.75752
-1.81325
-1.86898
-1.92471
-1.98044
-2.03209
-2.02801
-2.02393
-2.01985
-2.01577
-2.01169
-2.00761
-2.00354
-1.99946
-2.03209
-2.02801
-2.02393
-2.01985
-2.01577
-2.01169
-2.00761
-2.00354
-1.99946
-2.03617
-2.03617
-2.03617
-2.03617
-1.98096
-1.92576
-1.87056
-1.81535
-1.76015
-1.70494
-1.64974
-1.59454
-1.53934
-1.48414
-1.42894
-1.37374
-1.31855
-1.26335
-1.20816
-1.15297
-1.09776
-1.04253
-0.987223
-0.931778
-0.876098
-0.82007
-0.763679
-0.706967
-0.650004
-0.592897
-0.535872
-0.479353
-0.423532
-0.368912
-0.315614
-0.263733
-0.213696
-0.166275
-0.121113
-0.0792252
-0.0403194
-0.0034442
0.0331275
0.0714808
0.0714474
0.0714465
0.0715557
0.0714788
0.0716851
0.0719925
0.0724093
0.0727968
0.0733473
0.0739395
0.0748716
0.0757947
0.0766246
0.0418079
0.00701334
-0.0278064
-0.0642093
-0.103303
-0.145068
-0.18938
-0.235742
-0.283995
-0.333821
-0.384889
-0.437111
-0.490352
-0.544308
-0.598839
-0.653709
-0.708713
-0.763741
-0.81874
-0.873685
-0.928581
-0.983468
-1.03838
-1.09333
0.064564
0.0719797
0.0761319
0.0776527
0.0705393
0.0691783
0.0658454
0.0597757
-0.0919425
-0.136304
-0.182068
-0.229464
-0.278497
-0.329098
-0.381003
-0.434157
-0.488443
-0.543784
-0.59324
-0.534273
-0.476392
-0.419579
-0.363914
-0.309675
-0.256986
-0.205891
-0.156106
-0.107545
0.0187387
0.0120111
0.00687065
0.00331102
0.000960842
-0.000519769
-0.00137066
-0.00195859
-0.00200762
0.0268555
-0.00177752
0.0382321
0.0275138
0.0190001
0.0123986
0.00410665
0.0016575
0.00746066
-3.93761e-05
-0.000517591
-0.000222413
0.00232246
-0.000101223
-0.000351139
-0.000126531
-7.05903e-05
0.000607676
7.9137e-06
-0.00030497
0.0169171
0.00911726
0.00506964
0.00694985
0.00900496
0.0042478
0.0139987
0.00930705
-0.000185417
0.0128167
0.015959
0.0377055
0.0274444
0.0303504
0.0316824
0.0297536
0.0271958
0.0315381
0.0347498
0.0324912
0.0337711
0.0371532
-0.00165691
-0.0003032
-0.000316347
-0.000199594
-0.000152351
-0.000189626
-0.00084055
-0.00124157
-0.000399086
0.000303698
-0.000298584
-0.000480123
-0.000477673
0.036449
0.00138992
-0.000911843
0.0111409
0.00656395
0.00351148
0.0178839
-4.56592e-05
-0.00128522
0.00390913
0.0106306
0.0164889
0.00122264
0.00715698
0.0178563
0.0253959
0.0228037
0.0195926
0.0284449
0.0209648
-0.000160612
-0.00159911
-0.000533233
-0.0011278
-0.000231654
0.00449416
-0.000362964
0.00740994
0.0121964
-0.000824561
0.0133204
0.00198438
0.0242468
0.0189722
0.0123537
-0.000693974
-0.000335451
-0.00100961
0.00911483
0.00193632
0.000522997
0.0208136
0.0347645
0.0162628
0.000209744
0.00755884
-0.00151477
-0.00201474
0.00881244
0.0100347
0.000689817
-0.00042318
0.0209525
-6.29296e-05
-0.000553348
0.0177641
-0.000747693
-0.000374038
0.0277264
0.00387498
0.00596995
0.0273925
-0.025638
-0.0184936
-0.0128474
-0.0086803
-0.00571132
-0.00366573
-0.00233248
-0.0011405
-0.00097037
-0.0340131
-0.001552
-0.0354927
-0.0256997
-0.0180307
-0.0119205
-0.00395904
-0.00153793
-0.00723496
6.62599e-05
-0.000262071
0.000303864
-0.00446804
-0.00127585
-9.67054e-05
0.000192792
3.81811e-05
-0.000506549
8.72622e-05
-0.000536934
-0.0188475
-0.00960419
-0.0075313
-0.00929196
-0.0096207
-0.00438101
-0.0162912
-0.0100366
0.000280436
-0.0135091
-0.0171215
-0.0382025
-0.0322783
-0.0345448
-0.0352538
-0.0324981
-0.0290431
-0.0334241
-0.0426959
-0.0393468
-0.0355035
-0.038633
-0.000637115
0.000391792
8.3958e-05
0.000266597
0.000182801
0.000135097
-0.000164903
-0.000379332
0.000508459
-0.000169336
0.00045127
0.000629244
0.000608013
-0.0443691
-0.00550748
-0.0021904
-0.0167027
-0.011784
-0.00820119
-0.024113
-0.00353769
-0.00126255
-0.00380997
-0.0104783
-0.0163022
-0.00108868
-0.0070011
-0.02225
-0.0321833
-0.0286748
-0.020618
-0.0295446
-0.0221115
-1.15218e-05
-0.000720643
-9.37452e-06
-0.000468778
0.000369997
-0.00765001
-0.00205008
-0.011734
-0.0172136
-0.000780164
-0.0137159
-0.00193417
-0.0238659
-0.0199526
-0.0164722
-0.000222578
0.00044677
-0.000592951
-0.0131583
-0.00521892
-0.00329463
-0.0213327
-0.0341466
-0.0216666
-6.75747e-05
-0.00765591
-0.000887638
-0.000912227
-0.00936607
-0.0124336
-0.00226473
-0.000350286
-0.0229949
0.000114852
-0.000943486
-0.0187
-0.00138681
0.00050778
-0.0285512
-0.00779913
-0.0104817
-0.027806
0.0136699
0.0136656
0.0133084
0.0131652
0.0117586
0.0101519
0.00974853
0.0103568
0.010886
0.0120688
0.0132941
0.0148644
0.0168478
0.0177938
-0.00414096
-0.00393898
-0.00348216
-0.00288896
-0.00210391
-0.00143806
-0.00104567
-0.000951672
-0.000946534
-0.00105701
-0.00103998
-0.000824321
-0.000314812
0.000743649
-0.0220628
-0.021555
-0.0205479
-0.0191475
-0.0161732
-0.013347
-0.0121985
-0.0124272
-0.0129624
-0.0142128
-0.01534
-0.0164305
-0.0170561
-0.0164876
-0.0214064
-0.0229912
-0.0241279
-0.0247514
-0.026039
-0.0269236
-0.027731
-0.0285264
-0.0292262
-0.0297731
-0.030385
-0.0306598
-0.0311494
-0.0308677
0.00781439
0.0070517
0.00594496
0.00521545
0.0044326
0.00360708
0.00286021
0.00218507
0.00167069
0.00134724
0.00107665
0.000653114
0.000466162
0.000348497
0.0359483
0.0357809
0.0351166
0.034265
0.0333084
0.0324276
0.0321021
0.0317532
0.0311967
0.03091
0.0310536
0.0308517
0.0307628
0.0297886
-0.0019164
-0.00185717
-0.00175924
-0.00160068
-0.00132253
-0.000850826
-8.8502e-05
0.00106887
0.00272239
0.00496502
0.0078667
0.0114214
0.0159012
-0.00171949
-0.00173175
-0.00177795
-0.00187463
-0.00203526
-0.00226948
-0.0025798
-0.0029575
-0.00338512
-0.00383159
-0.00424267
-0.0044583
-0.00385831
-0.00152938
-0.00161308
-0.00180437
-0.0021581
-0.0027595
-0.00370135
-0.00508423
-0.00698859
-0.00946618
-0.0125314
-0.0161638
-0.0201312
-0.0243237
-0.000214171
-0.000172039
-0.000149524
-0.000188764
-0.000310001
-0.000514376
-0.000789602
-0.00110991
-0.00143395
-0.00171686
3.76982e-05
1.7783e-05
-9.93751e-06
-6.03061e-05
-0.000155718
-0.000316578
-0.000549086
-0.000838959
-0.00115259
-0.00145104
0.000291987
0.00021201
0.000136682
7.77346e-05
9.93991e-06
-0.000107107
-0.000300004
-0.000564234
-0.000872626
-0.00119048
0.00039399
9.80298e-05
-9.8844e-05
-0.000181036
5.61812e-05
7.33828e-05
7.82408e-05
7.31242e-05
-0.00027802
5.16844e-05
0.000257998
0.000329549
0.0209333
0.0154822
0.0111716
0.00767853
0.00505172
0.00315739
0.00188457
0.00114718
0.00250103
0.000892652
0.00037701
0.000144685
3.35934e-05
-6.95565e-07
3.4235e-06
1.81027e-05
-0.0165349
-0.0134062
-0.0102186
-0.00731285
-0.00496257
-0.00315115
-0.00187224
-0.0011061
0
0
0
0
0
0
0
0
0
0
0
0
0
0
0
0
0
0
0
0
0
0
0
0
0
0
0
0
0
0
0
0
0
0
0
0
0
0
0
0
0
0
0
0
0
0
0
0
0
0
0
0
0
0
0
0
0
0
0
0
0
0
0
0
0
0
-0.648583
-0.658916
-0.660881
-0.664117
-0.659835
-0.641566
-0.654532
-0.657561
-0.662335
-0.633704
-0.664533
-0.663034
-0.659498
-0.662534
-0.656517
-0.663991
-0.660563
-0.663526
-0.658136
-0.66539
-0.605973
-0.606586
-0.606915
-0.606692
-0.606442
-0.605079
-0.607089
-0.650594
-0.657186
-0.645156
-0.650301
-0.615791
-0.623338
-0.639104
-0.655204
-0.618519
-0.653228
-0.634712
-0.620897
-0.61505
-0.658079
-0.657331
-0.643374
-0.655607
-0.657669
-0.615868
-0.620636
-0.62944
-0.617361
-0.627037
-0.62296
-0.616997
-0.625839
-0.630618
-0.61114
-0.623059
-0.649896
-0.645466
-0.614064
-0.620363
-0.636045
-0.640955
-0.608622
-0.625816
-0.619603
-0.613806
-0.666313
-0.659047
-0.661627
-0.660159
-0.654211
-0.660773
-0.661306
-0.663271
-0.657991
-0.654948
-0.657111
-0.653711
-0.659681
-0.609629
-0.608734
-0.609616
-0.610521
-0.610443
-0.64767
-0.64317
-0.652148
-0.614475
-0.616493
-0.636898
-0.617638
-0.613661
-0.608952
-0.659133
-0.65637
-0.652824
-0.658688
-0.658184
-0.650108
-0.612823
-0.613602
-0.614783
-0.618854
-0.639539
-0.644232
-0.614812
-0.608165
-0.660903
-0.649146
-0.658284
-0.655396
-0.65764
-0.612732
-0.612462
-0.63382
-0.654437
-0.656518
-0.64708
-0.630237
-0.617223
-0.639785
-0.619618
-0.659505
-0.660049
-0.617264
-0.650114
-0.611807
-0.661785
-0.859286
-0.869814
-0.871863
-0.875153
-0.870778
-0.852213
-0.865307
-0.868403
-0.873348
-0.844309
-0.875613
-0.874267
-0.871087
-0.87385
-0.868538
-0.875104
-0.871998
-0.87469
-0.869908
-0.876448
-0.815632
-0.816411
-0.81689
-0.816797
-0.816655
-0.814555
-0.817397
-0.861323
-0.868032
-0.856674
-0.861645
-0.825787
-0.833897
-0.850614
-0.866342
-0.828975
-0.86449
-0.846063
-0.830994
-0.825194
-0.868984
-0.868312
-0.854041
-0.866676
-0.868603
-0.826128
-0.831139
-0.840035
-0.827305
-0.837789
-0.833282
-0.826828
-0.836444
-0.841641
-0.820726
-0.833351
-0.862062
-0.857419
-0.823728
-0.83044
-0.847434
-0.852625
-0.81903
-0.836393
-0.830146
-0.824298
-0.877363
-0.869994
-0.872641
-0.871141
-0.866618
-0.871907
-0.87239
-0.87431
-0.869313
-0.8665
-0.86856
-0.86544
-0.87088
-0.819782
-0.818957
-0.819482
-0.820557
-0.820748
-0.859449
-0.854813
-0.864073
-0.824296
-0.826413
-0.847529
-0.828142
-0.824079
-0.818664
-0.870147
-0.86759
-0.864244
-0.869735
-0.869276
-0.861656
-0.822972
-0.823628
-0.825141
-0.828811
-0.851067
-0.855814
-0.824721
-0.817701
-0.871918
-0.860803
-0.869245
-0.866758
-0.868778
-0.822991
-0.822358
-0.844433
-0.865215
-0.867532
-0.858527
-0.841297
-0.827593
-0.850428
-0.82965
-0.870497
-0.871333
-0.827174
-0.861581
-0.821573
-0.872832
-0.682214
-0.686499
-0.690979
-0.695328
-0.699536
-0.703307
-0.706359
-0.708581
-0.709704
-0.709986
-0.708881
-0.735073
-0.739391
-0.743859
-0.748197
-0.752386
-0.756135
-0.759179
-0.761372
-0.76245
-0.762628
-0.761412
-0.787681
-0.792141
-0.796732
-0.801098
-0.805266
-0.808961
-0.811951
-0.814114
-0.815193
-0.815438
-0.814302
-0.700656
-0.693599
-0.686508
-0.680114
-0.675356
-0.671931
-0.670077
-0.669743
-0.670432
-0.67228
-0.674937
-0.753142
-0.746151
-0.739134
-0.73277
-0.727975
-0.724496
-0.722587
-0.722218
-0.722928
-0.724849
-0.727605
-0.806007
-0.798919
-0.791794
-0.785356
-0.780538
-0.777041
-0.775118
-0.774733
-0.77539
-0.777272
-0.780034
-0.688054
-0.69525
-0.701455
-0.706313
-0.709437
-0.711296
-0.712528
-0.713688
-0.715147
-0.717003
-0.719199
-0.740531
-0.747722
-0.75389
-0.758759
-0.761927
-0.763848
-0.76515
-0.76636
-0.767842
-0.769703
-0.771822
-0.793356
-0.800574
-0.806809
-0.8117
-0.814857
-0.816745
-0.818002
-0.819182
-0.820656
-0.822523
-0.824722
-0.658421
-0.662655
-0.667795
-0.673836
-0.711069
-0.715316
-0.720446
-0.72641
-0.763651
-0.767901
-0.773061
-0.779114
-0.654813
-0.655656
-0.656217
-0.656524
-0.65653
-0.656194
-0.65559
-0.654971
-0.707372
-0.708206
-0.708728
-0.709037
-0.709068
-0.708767
-0.708201
-0.707602
-0.759557
-0.760519
-0.761169
-0.761551
-0.761623
-0.761343
-0.760778
-0.760181
-0.72096
-0.720143
-0.719585
-0.719263
-0.719126
-0.719039
-0.718826
-0.718263
-0.717357
-0.716054
-0.714431
-0.712378
-0.773511
-0.772839
-0.772348
-0.772047
-0.771918
-0.771835
-0.77163
-0.771088
-0.770215
-0.768998
-0.767568
-0.765832
-0.826481
-0.825663
-0.825109
-0.824797
-0.824678
-0.82462
-0.824449
-0.823941
-0.823098
-0.821869
-0.820342
-0.818466
-0.708644
-0.704063
-0.699286
-0.694239
-0.689212
-0.684415
-0.680102
-0.676317
-0.67312
-0.670201
-0.667396
-0.664524
-0.661478
-0.658318
-0.761952
-0.757513
-0.752618
-0.747476
-0.742329
-0.737387
-0.732948
-0.72905
-0.725789
-0.722839
-0.720019
-0.717146
-0.714112
-0.710853
-0.814753
-0.810094
-0.80521
-0.800046
-0.794876
-0.789932
-0.785444
-0.7815
-0.778153
-0.775134
-0.772264
-0.769344
-0.766262
-0.763088
-0.759858
-0.762961
-0.766322
-0.769697
-0.773175
-0.776677
-0.780321
-0.784083
-0.787992
-0.792022
-0.796083
-0.800242
-0.804504
-0.809071
-0.707438
-0.71053
-0.713838
-0.717218
-0.720637
-0.724115
-0.727701
-0.731377
-0.735153
-0.739004
-0.742931
-0.746909
-0.751053
-0.755621
-0.655202
-0.658418
-0.661686
-0.665028
-0.668388
-0.671742
-0.675248
-0.678847
-0.682535
-0.68632
-0.690031
-0.693958
-0.698022
-0.702414
-1.75322
-1.80616
-1.85576
-1.90012
-1.93754
-1.96657
-1.9861
-1.75322
-1.80616
-1.85576
-1.90012
-1.93754
-1.96657
-1.9861
-1.75322
-1.80616
-1.85576
-1.90012
-1.93754
-1.96657
-1.9861
-1.75322
-1.80616
-1.85576
-1.90012
-1.93754
-1.96657
-1.9861
-1.54164
-1.54164
-1.54164
-1.54164
-1.59409
-1.59409
-1.59409
-1.59409
-1.64653
-1.64653
-1.64653
-1.64653
-1.49328
-1.49735
-1.50143
-1.50551
-1.49328
-1.49735
-1.50143
-1.50551
-1.49328
-1.49735
-1.50143
-1.50551
-1.49328
-1.49735
-1.50143
-1.50551
-1.45255
-1.39551
-1.33849
-1.28146
-1.22446
-1.45255
-1.39551
-1.33849
-1.28146
-1.22445
-1.45254
-1.39551
-1.33848
-1.28146
-1.22444
-1.45255
-1.39551
-1.33849
-1.28146
-1.22445
-1.16353
-1.15967
-1.15585
-1.15207
-1.1635
-1.15964
-1.15584
-1.15206
-1.16349
-1.15963
-1.15582
-1.15205
-1.1635
-1.15963
-1.15582
-1.15204
-1.56463
-1.67603
-1.7307
-1.7752
-1.88206
-1.81546
-1.91295
-1.94039
-1.85658
-1.94376
-1.11342
-0.87535
-0.879051
-0.882898
-1.95778
-1.96181
-1.10292
-1.10763
-0.868254
-0.869615
-0.872143
-0.89511
-0.900525
-0.911941
-1.95366
-1.96587
-1.96987
-1.97614
-1.98024
-1.94916
-1.11682
-1.55558
-1.44744
-1.28026
-1.61463
-1.22452
-1.11311
-1.00276
-1.1688
-1.33598
-1.39171
-1.50317
-1.5589
-1.72609
-1.78185
-1.89319
-1.05774
-1.67036
-1.83779
-1.31355
-0.905818
-0.954561
-1.01059
-1.25495
-1.37065
-1.43041
-1.19484
-1.49736
-1.89128
-1.85851
-1.77051
-1.70768
-1.89786
-1.62106
-0.886876
-0.864867
-0.907158
-1.97346
-1.06148
-1.91193
-0.925892
-0.890947
-1.55825
-1.5532
-0.947665
-1.92
-1.90787
-0.930601
-1.91594
-0.919187
-0.921881
-0.91941
-1.90331
-1.06374
-1.55594
-1.12702
-1.75054
-1.5832
-1.30452
-1.41599
-1.47173
-1.24878
-1.9405
-1.19304
-1.13731
-1.36026
-1.0814
-1.02572
-1.52747
-1.63893
-1.86338
-1.69469
-1.80709
-1.40376
-0.924389
-0.987889
-1.34585
-1.28738
-1.22786
-1.46186
-1.84656
-1.92368
-1.85249
-1.65052
-1.01548
-1.59738
-1.9239
-0.936875
-0.979479
-1.86601
-0.967728
-1.86976
-0.971134
-0.9669
-1.86198
-0.941261
-1.92689
-0.933978
-0.954464
-1.60262
-1.85757
-1.04946
-0.965323
-1.27303
-1.38454
-1.32879
-1.66322
-1.44029
-1.60751
-1.21725
-1.49604
-1.55178
-1.71883
-1.83259
-1.16139
-1.77344
-1.10458
-1.04812
-1.06108
-1.60565
-1.16706
-1.32047
-1.37856
-0.971961
-1.43698
-1.26276
-1.59317
-1.80193
-1.67888
-1.83815
-1.80723
-1.65178
-0.98505
-0.987755
-1.87857
-1.81859
-1.00751
-1.02231
-1.87385
-1.81516
-0.993797
-1.0079
-1.05783
-1.01725
-0.983923
-1.81157
-1.00029
-1.88502
-1.7897
-1.57613
-1.63182
-1.35128
-1.29596
-1.52039
-1.40685
-1.46366
-1.74231
-1.07064
-1.12829
-1.24089
-1.18533
-1.68748
-1.54134
-1.07146
-1.65437
-1.60824
-1.20501
-1.49562
-1.35603
-1.41447
-1.29974
-0.955829
-1.75597
-1.79744
-1.62166
-1.76071
-1.04088
-1.0345
-1.034
-1.03886
-1.04084
-1.82222
-1.76781
-1.76573
-1.70301
-1.65746
-1.60005
-1.54358
-1.48616
-1.77056
-1.65619
-1.31652
-1.3719
-1.09182
-1.26146
-1.42854
-1.71092
-1.15226
-1.2061
-1.55709
-1.47318
-1.51405
-1.2432
-1.39287
-1.33645
-1.14644
-1.70932
-1.75249
-1.83009
-1.71526
-1.07328
-1.0816
-1.10688
-1.82791
-1.77001
-1.70544
-1.72615
-1.56684
-1.62396
-1.50878
-1.68004
-1.72883
-1.45067
-1.28025
-1.17002
-1.22449
-1.61178
-1.66189
-1.55971
-1.53262
-1.18582
-1.08795
-1.79804
-1.67024
-1.59119
-1.64896
-1.71315
-1.12443
-1.12402
-1.74874
-1.61638
-1.7347
-1.01373
-1.70343
-2.03209
-2.02801
-2.02393
-2.01985
-2.01577
-2.01169
-2.00761
-2.00354
-1.99946
-2.03209
-2.02801
-2.02393
-2.01985
-2.01577
-2.01169
-2.00761
-2.00354
-1.99946
-2.03209
-2.02801
-2.02393
-2.01985
-2.01577
-2.01169
-2.00761
-2.00354
-1.99946
-2.03209
-2.02801
-2.02393
-2.01985
-2.01577
-2.01169
-2.00761
-2.00354
-1.99946
-1.94032
-1.85403
-1.91235
-1.72598
-1.82168
-1.55399
-1.94911
-1.72898
-1.6738
-1.01129
-1.83956
-1.78422
-1.53852
-1.54602
-1.55076
-1.67348
-1.61984
-1.77896
-1.87948
-1.94368
-1.95353
-1.95771
-1.9618
-1.96588
-1.96992
-1.9736
-1.97627
-1.98049
-1.6186
-1.48794
-1.5634
-1.42888
-1.5082
-1.37105
-1.45299
-1.31307
-1.39779
-1.25397
-1.34259
-1.18794
-1.28739
-1.23219
-1.17699
-1.12179
-1.06656
-0.955922
-0.900395
-0.844583
-0.788504
-0.732151
-0.675556
-0.618821
-0.562131
-0.50579
-0.450029
-0.395289
-0.341659
-0.289528
-0.238715
-0.190241
-0.144176
-0.100689
-0.0601003
-0.0212787
0.015037
0.0404486
0.0400246
0.0394451
0.0391057
0.0384458
0.0375369
0.0361931
-0.958978
-0.904227
-0.849308
-0.794304
-0.739283
-0.684253
-0.629363
-0.57472
-0.520565
-0.466959
-0.414261
-0.362555
-0.312092
-0.263005
-0.2156
-0.170063
-0.126609
-0.086232
-0.0469334
-0.00935824
0.0289088
-1.1174
-1.11193
-1.10653
-1.10278
-1.89207
-1.81528
-1.85802
-1.75279
-1.70069
-1.89859
-1.56329
-1.64946
0.0409154
0.0493543
-1.01321
-1.89429
-1.91189
-1.53226
-0.108098
-0.214441
-0.979988
-1.59615
-1.47705
-1.201
-1.14579
-0.0799942
-0.290554
0.0471446
-1.92406
-1.92716
-0.924558
-0.813083
-0.824895
-0.659751
-0.605054
-0.496798
-0.443731
0.00808765
0.00751669
0.00316248
-0.880067
-0.700701
-0.644295
-0.531672
-0.476091
-0.42133
-0.367441
-0.935151
-1.58746
-0.263672
-0.0292702
0.042454
0.0412272
-1.59238
-1.91597
-1.69777
-1.9201
-1.90776
-1.75275
-1.80829
-1.64265
-1.42184
-1.36663
-1.31142
-1.25621
-1.03533
-1.09058
-0.769837
-0.714774
-0.550692
-0.391416
-0.167043
0.00845453
0.00646066
-0.242137
-0.122052
-0.0407608
0.00426337
0.000188254
-0.868937
-0.756996
-0.58791
-0.340324
-0.314885
-0.195591
-0.150625
-0.0678594
0.0435221
-1.05874
-1.05942
-1.90345
-1.60214
-1.06407
-1.12593
-1.55201
-1.28712
-1.40424
-1.34567
-1.22915
-1.46363
-1.84884
-1.726
0.0109569
-1.67743
-1.0492
-1.8536
-1.00615
-1.65285
0.00920419
-0.948669
-0.268858
-0.0590209
-0.130902
-0.0231952
-0.238388
-0.0883721
-0.318176
-0.392919
-0.0487762
-1.66663
-0.14378
-0.0240386
-0.0270968
-0.190214
-0.288311
0.00958343
-0.0253254
-0.0997759
0.0106697
-0.339945
-0.368699
-0.0336015
-0.221193
-0.175264
-0.420379
-0.446873
-0.473215
-0.501885
-0.526682
-0.557328
-0.580882
-0.635347
-0.613373
-0.690207
-0.669413
-1.33468
-0.745322
-1.38969
-1.00404
-0.725567
-1.86601
-1.44513
-0.800571
-1.11457
-1.05933
-1.87901
-1.16979
-1.50075
-0.893158
-1.72129
-1.27973
-1.61152
-1.87437
-0.856192
-0.781595
-1.22488
-1.86194
-1.87003
-1.55622
-0.837445
-1.77522
0.0096045
-0.911995
-1.86425
-1.92419
-0.989581
-1.85781
-1.07176
-1.60529
-1.52425
-1.31992
-1.38004
-1.43999
-1.26019
-1.7025
-1.80417
-1.77071
-1.80779
-0.889276
-1.63549
-0.750197
-1.19369
-0.806003
-1.57999
-0.832201
-1.82323
-1.82903
-1.02802
-0.972691
-0.776224
-0.694288
-0.720797
-0.638437
-1.13835
-0.665707
-0.582645
-0.610971
-0.5272
-0.556614
-0.50271
-0.0256723
-0.016434
-0.022784
-0.472213
-0.449471
-1.83322
-0.418053
-0.397163
-0.364914
-0.345912
-0.295969
-0.312861
-0.247259
-0.262287
-0.213232
-0.200199
-0.165811
-0.154727
-0.120098
-0.110621
-0.0769725
-0.0686405
-0.0577209
-0.0585211
-0.0260576
-0.0575957
-0.057037
-1.08316
-0.022138
-0.022406
-1.35626
-1.41147
-1.24842
-1.46761
-1.52378
-0.861709
-0.91726
-1.69036
-1.74426
-1.30228
-1.81937
-1.81545
-1.88557
-0.967064
-1.81158
-1.0201
-1.01415
-1.65481
-1.07869
-1.61181
-1.94114
-1.20459
-1.50135
-1.35706
-1.41706
-1.29256
-1.75747
-1.8067
-1.80143
-1.76111
-0.863967
-0.806917
-1.60355
-0.774629
-1.77247
-0.718924
-1.16182
-1.21842
-1.79084
-0.663183
-0.830296
-0.751297
-1.05132
-0.69611
-0.641179
-1.54668
-0.607615
-1.10601
-0.552271
-0.586672
-0.497342
-0.53236
-0.478726
-0.443064
-0.0563313
-0.425908
-0.3897
-0.374041
-0.33719
-0.323179
-0.273577
-0.0516714
-0.286214
-0.236106
-0.187667
-0.225638
-0.135087
-0.0895752
-0.179381
-0.141799
-0.095071
-0.0927347
-0.0938585
-0.0545828
-0.0556123
-1.7718
-1.63365
-1.43241
-0.885853
-0.996264
-1.27251
-1.37625
-0.94113
-1.65937
-1.48943
-1.32353
-1.71383
-1.76749
-0.945917
-1.76467
-0.975329
-1.02647
-1.13412
-1.65861
-1.22896
-1.18062
-1.47678
-1.39597
-1.34002
-0.926404
-1.71019
-1.75431
-1.84141
-1.71446
-0.835551
-0.779873
-0.744058
-0.799551
-0.688871
-1.57065
-0.724763
-1.12664
-1.18653
-0.85497
-1.07259
-1.73151
-0.63361
-0.669969
-0.61525
-0.578459
-1.24895
-0.523562
-0.560787
-0.469239
-0.506754
-0.453498
-0.415696
-0.401048
-0.0920124
-0.3627
-0.349674
-0.299972
-0.25193
-0.310407
-0.209065
-0.259036
-0.161731
-0.204571
-0.120649
-0.158634
-0.130683
-0.0906406
-1.6284
-1.01878
-0.90992
-1.51228
-1.45399
-0.964471
-1.68397
-1.71503
-1.71809
-0.97805
-1.0842
-1.70654
-1.03051
-1.66386
-1.14712
-1.18142
-1.5377
-0.124063
-1.75221
-0.805736
-0.750559
-0.770975
-0.716427
-0.826095
-0.6959
-0.661719
-1.09089
-0.641392
-0.606866
-1.59849
-0.586881
-0.552076
-0.880531
-0.497651
-0.532611
-0.478899
-0.443944
-0.425905
-0.390386
-0.373945
-0.336034
-0.324871
-0.136246
-0.0898709
-0.278957
-0.282019
-0.23187
-0.231382
-0.179052
-0.182409
-0.131321
-0.121793
-1.04006
-0.934277
-0.987545
-0.892052
-1.67785
-1.70387
-0.979985
-1.61976
-1.03324
-1.56952
-1.67081
-1.63198
-0.159999
-0.774943
-0.720445
-0.745295
-0.800038
-0.691043
-0.666065
-0.854405
-0.636441
-1.06055
-0.611616
-0.581838
-0.557088
-0.52741
-0.503048
-0.473487
-0.449556
-0.419892
-0.396516
-0.365396
-0.344827
-0.306144
-0.303502
-0.26321
-0.25028
-0.210493
-0.906897
-0.861909
-0.958319
-0.980938
-0.178775
-0.884616
-1.65595
-0.924277
-1.10453
-1.57547
-0.830246
-0.931005
-0.210054
-1.29551
0.0343506
-1.0101
-1.13952
-0.940154
0.0608118
0.060869
0.0607821
0.0608693
0.0602253
0.0608616
0.0610345
0.0609064
0.0614471
0.0621494
0.0632005
0.0635984
0.0645721
0.0649196
0.0666607
0.0669656
0.0667114
0.0662787
0.0669264
0.0665618
0.0670059
0.0674844
0.0677233
0.068183
0.0687314
0.0698282
0.0707095
0.0712378
0.0697537
0.0697903
0.069955
0.0701644
0.0698454
0.0699895
0.0703268
0.0707886
0.0711277
0.0717383
0.0720995
0.0731145
0.0737118
0.0752353
0.0710852
0.071156
0.071135
0.0713908
0.0711541
0.0713258
0.0716302
0.0720525
0.0724421
0.072992
0.0735546
0.0744929
0.0754476
0.0764137
-1.09184
-1.09222
-1.09259
-1.09296
-1.03544
-1.03617
-1.0369
-1.03764
-0.979085
-0.980167
-0.981258
-0.982365
-0.922843
-0.924238
-0.925658
-0.927107
-0.866807
-0.868374
-0.870052
-0.871841
-0.810997
-0.812549
-0.814415
-0.816519
-0.758368
-0.759226
-0.760527
-0.762051
-0.705476
-0.705755
-0.706472
-0.707508
-0.652504
-0.652253
-0.652462
-0.652967
-0.599426
-0.598775
-0.598565
-0.598564
-0.543503
-0.54342
-0.543444
-0.543741
-0.488296
-0.48846
-0.488813
-0.489474
-0.43417
-0.434505
-0.435077
-0.435933
-0.381064
-0.381449
-0.382239
-0.383448
-0.329252
-0.329818
-0.330774
-0.332128
-0.278682
-0.279335
-0.280487
-0.282023
-0.229714
-0.230553
-0.231766
-0.233487
-0.182406
-0.183411
-0.184987
-0.186909
-0.136836
-0.138231
-0.140095
-0.142382
-0.0929039
-0.0953887
-0.0979128
-0.100523
-0.0522517
-0.0559219
-0.058796
-0.0615158
-0.0200241
-0.021923
-0.0240138
-0.0258606
0.00835619
0.00913134
0.00878891
0.00820623
0.0360571
0.0396115
0.0415657
0.0420918
0.0282185
0.0313302
0.0328352
0.0333698
-0.00116516
-0.000887306
-0.00148913
-0.00228824
-0.0309997
-0.033591
-0.0360281
-0.0381804
-0.0645319
-0.0695373
-0.0731593
-0.0762723
-0.109764
-0.112157
-0.115128
-0.118069
-0.156963
-0.158587
-0.160715
-0.163279
-0.206417
-0.207385
-0.208835
-0.211061
-0.257269
-0.258246
-0.259536
-0.261378
-0.309936
-0.310677
-0.311861
-0.313527
-0.364135
-0.364748
-0.365767
-0.367184
-0.419724
-0.420216
-0.421068
-0.422112
-0.476447
-0.47672
-0.477251
-0.478178
-0.534214
-0.534306
-0.534514
-0.53505
-0.592946
-0.592574
-0.592298
-0.592466
-0.652315
-0.650778
-0.650121
-0.649915
-0.707312
-0.706282
-0.706099
-0.706404
-0.761637
-0.761368
-0.761784
-0.762619
-0.815576
-0.816056
-0.817072
-0.818481
-0.868913
-0.870213
-0.87197
-0.873968
-0.924124
-0.925874
-0.927767
-0.929743
-0.979493
-0.981408
-0.983337
-0.985277
-1.03502
-1.03691
-1.0388
-1.04067
-1.09061
-1.09241
-1.09421
-1.09599
-1.14623
-1.14792
-1.14962
-1.1513
-1.20184
-1.20343
-1.20502
-1.20659
-1.25746
-1.25894
-1.26042
-1.26189
-1.31308
-1.31445
-1.31582
-1.31718
-1.3687
-1.36996
-1.37122
-1.37248
-1.42431
-1.42547
-1.42663
-1.42778
-1.47993
-1.48098
-1.48204
-1.48309
-1.53555
-1.5365
-1.53745
-1.53839
-1.59118
-1.59202
-1.59286
-1.5937
-1.6468
-1.64753
-1.64827
-1.64901
-1.70242
-1.70305
-1.70368
-1.70431
-1.75805
-1.75857
-1.7591
-1.75962
-1.81367
-1.81409
-1.81451
-1.81493
-1.86929
-1.86961
-1.86993
-1.87024
-1.92492
-1.92513
-1.92534
-1.92555
-1.98054
-1.98065
-1.98075
-1.98086
-0.109844
-0.157493
-0.206696
-0.257195
-0.309562
-0.363241
-0.418445
-0.474683
-0.531949
-0.590121
-0.109307
-0.157399
-0.206734
-0.256692
-0.308995
-0.36212
-0.416956
-0.472609
-0.529399
-0.586928
-0.110014
-0.157464
-0.206162
-0.256155
-0.30785
-0.360863
-0.415152
-0.470472
-0.526758
-0.583776
-0.109004
-0.156629
-0.205379
-0.255059
-0.306469
-0.359193
-0.413123
-0.468025
-0.523844
-0.580448
-0.108089
-0.155892
-0.204402
-0.253781
-0.304837
-0.35731
-0.410893
-0.465464
-0.520904
-0.577148
-0.107827
-0.154962
-0.203086
-0.252362
-0.303171
-0.35523
-0.408576
-0.462782
-0.517816
-0.573792
-0.106786
-0.15391
-0.201559
-0.250638
-0.301216
-0.353023
-0.406046
-0.460032
-0.5149
-0.570377
-0.104754
-0.15239
-0.199795
-0.248929
-0.299061
-0.350879
-0.403446
-0.457211
-0.511875
-0.567158
-0.104576
-0.151013
-0.198192
-0.247091
-0.296923
-0.348302
-0.400777
-0.45442
-0.508818
-0.56387
-0.103512
-0.149326
-0.196538
-0.244768
-0.294481
-0.345603
-0.398052
-0.451504
-0.505679
-0.560642
-0.101319
-0.147448
-0.194266
-0.242424
-0.291933
-0.342899
-0.395108
-0.448345
-0.502491
-0.55742
-0.100637
-0.145455
-0.191753
-0.239831
-0.289128
-0.339964
-0.391884
-0.445071
-0.499226
-0.554196
-0.0975808
-0.142838
-0.188971
-0.236808
-0.285943
-0.33664
-0.388568
-0.441615
-0.495795
-0.550813
-0.0955929
-0.140136
-0.185858
-0.233378
-0.282455
-0.333037
-0.384956
-0.438024
-0.492239
-0.547313
0.00809183
0.00509923
0.0027692
0.00112013
-1.37782e-05
-0.00076969
-0.00123618
-0.00161068
-0.00166749
0.0115597
-0.00148035
0.0176792
0.0143742
0.0102917
0.00703121
0.00271521
0.00127876
0.00452319
-9.28729e-06
-0.000542154
-0.000159363
0.00106742
-0.000283707
-0.000374973
-8.7017e-05
-5.50966e-05
0.000416094
-5.64218e-06
-0.000382925
0.00642218
0.00291935
0.00241732
0.00320457
0.00469035
0.00250486
0.00562797
0.00424352
-0.000134959
0.00415084
0.00548861
0.014548
0.0110612
0.0104651
0.009565
0.00875322
0.00885413
0.0104792
0.012918
0.0123622
0.0119937
0.013244
-0.00139439
-0.000152358
-0.000245155
-9.18958e-05
-6.81909e-05
-0.000117676
-0.000717693
-0.00104964
-0.000194101
0.000407654
-1.91166e-05
-0.000163232
-0.000210911
0.0140489
0.000274104
-0.000938982
0.00489403
0.00275747
0.00131184
0.00785866
-0.000464435
-0.00114747
0.00251286
0.00604464
0.00889508
0.000907176
0.00429662
0.0080545
0.0108935
0.00997325
0.00805449
0.0123459
0.00965671
-0.000175863
-0.00135703
-0.000446634
-0.00099608
-7.04632e-05
0.00209029
-0.00055153
0.00336632
0.00548609
-0.000809724
0.00716366
0.00128137
0.0125016
0.00937946
0.00565577
-0.000641043
-0.000183818
-0.000930874
0.00422395
0.000696849
-4.94716e-05
0.0104849
0.0154004
0.00728064
0.000234732
0.00440355
-0.00129934
-0.00169563
0.00344356
0.00423839
0.000203049
-0.000474649
0.00766208
-2.47336e-05
-0.000594141
0.00663305
-0.000774775
-0.000159199
0.0127694
0.00164129
0.00260034
0.0129886
-0.00377757
-0.00335934
-0.00300154
-0.00266112
-0.00234123
-0.00205749
-0.00181935
-0.00152888
-0.00147385
-0.00417006
-0.001638
0.000422453
0.000299636
0.000241187
0.000154847
5.93873e-05
5.0875e-05
8.40062e-05
3.32114e-06
-0.000394363
3.67584e-05
-0.00104147
-0.000673606
-0.000237518
2.80733e-05
-2.90917e-05
4.59892e-05
4.31387e-05
-0.000414141
-0.00134932
-0.000387837
-0.0012104
-0.00118939
-0.000334169
-5.30679e-05
-0.00141912
-0.000478716
4.33118e-05
-0.000588784
-0.000882101
-0.00122247
-0.00287628
-0.00206357
-0.00146499
-0.00108877
-0.00101159
-0.0011549
-0.00418889
-0.00369403
-0.00131815
-0.00131726
-0.00114335
3.85566e-05
-0.000139063
2.37672e-05
2.45383e-07
-4.72362e-05
-0.00051915
-0.000817263
5.08783e-05
5.99219e-05
7.06243e-05
7.01904e-05
6.18358e-05
-0.00421494
-0.00202615
-0.00152441
-0.00285922
-0.00261
-0.00231935
-0.0034063
-0.00176015
-0.00125604
4.7025e-05
3.4858e-05
-5.95959e-05
6.01028e-05
6.06925e-05
-0.00256904
-0.00396964
-0.00346728
-0.0010192
-0.00137304
-0.00115643
-0.000100831
-0.00115346
-0.000293458
-0.000801678
6.35597e-05
-0.0015496
-0.00118424
-0.00216208
-0.00261338
-0.000795508
-0.000285291
2.6048e-05
-0.000335837
-0.000835069
-0.00217539
-0.000469106
5.14988e-05
-0.000799757
-0.00204857
-0.00160979
-0.00135814
-0.000637275
-0.000861015
-0.00294422
6.41205e-05
-4.83206e-05
-0.00118988
-0.00145191
-0.000454138
-0.00128912
-0.000764756
-0.000384413
-0.00133648
1.85784e-05
-0.000736732
-0.000845018
-0.00105023
6.21773e-05
-0.0012353
-0.00193444
-0.00224647
-0.000954752
-0.0154444
-0.0117249
-0.00874961
-0.00644796
-0.00468292
-0.00336078
-0.00241695
-0.00145663
-0.0012874
-0.0196479
-0.001808
-0.0167382
-0.0133716
-0.00963545
-0.00665686
-0.00258816
-0.00117297
-0.00433514
1.77663e-05
-0.000246872
0.000234305
-0.00315499
-0.00106986
-9.59486e-05
0.00014471
-4.51063e-07
-0.000323461
9.35703e-05
-0.00044922
-0.00892152
-0.00365465
-0.0048151
-0.00551591
-0.00529373
-0.00260714
-0.0082421
-0.00506505
0.000223058
-0.00525527
-0.00718753
-0.017162
-0.0171875
-0.0154976
-0.0135146
-0.0118565
-0.0115625
-0.0134319
-0.0219968
-0.0203249
-0.0151242
-0.0163807
-0.000894306
0.000232427
-2.38334e-05
0.000143877
7.51023e-05
3.14585e-05
-0.000314287
-0.000582257
0.000298084
-0.000284303
0.000162978
0.000305728
0.000336413
-0.0230333
-0.00434009
-0.0021228
-0.0105349
-0.00796022
-0.00595596
-0.0144799
-0.00307066
-0.00137376
-0.00241605
-0.00593181
-0.00888295
-0.000784786
-0.00415846
-0.0129095
-0.0185427
-0.0166043
-0.00987507
-0.0147613
-0.0115966
-2.18778e-05
-0.000953297
-0.000132045
-0.000606431
0.000200018
-0.00518344
-0.00182878
-0.00766395
-0.0106142
-0.000786445
-0.0076339
-0.00123103
-0.0127459
-0.0107855
-0.00990022
-0.000292964
0.000288356
-0.000670844
-0.00826899
-0.0039284
-0.00268009
-0.0114901
-0.0169113
-0.0129973
-0.000103724
-0.00448525
-0.00108649
-0.00121401
-0.00420594
-0.0067422
-0.00174296
-0.000298791
-0.0104034
6.35549e-05
-0.000884642
-0.00823795
-0.00133428
0.000285599
-0.0147887
-0.00551347
-0.00708004
-0.0144544
-0.700552
-0.711143
-0.713341
-0.716618
-0.712208
-0.693573
-0.706381
-0.70956
-0.714826
-0.68579
-0.717304
-0.715885
-0.712395
-0.715406
-0.709668
-0.716792
-0.713441
-0.71635
-0.711072
-0.718072
-0.658546
-0.659075
-0.659426
-0.659243
-0.659021
-0.658161
-0.659696
-0.702676
-0.709395
-0.69784
-0.702891
-0.668161
-0.676209
-0.691987
-0.708003
-0.671223
-0.705876
-0.687699
-0.673684
-0.66742
-0.710661
-0.710296
-0.695676
-0.708509
-0.710509
-0.668284
-0.673446
-0.68225
-0.669801
-0.68009
-0.675897
-0.670099
-0.678977
-0.683959
-0.664371
-0.676233
-0.704355
-0.699718
-0.667236
-0.673397
-0.689437
-0.694874
-0.661311
-0.678442
-0.672345
-0.66658
-0.718741
-0.711718
-0.714348
-0.712873
-0.708494
-0.713618
-0.714154
-0.715993
-0.710777
-0.707741
-0.709915
-0.706571
-0.712509
-0.662142
-0.661293
-0.66207
-0.662973
-0.663025
-0.700832
-0.696285
-0.705324
-0.667162
-0.669006
-0.689485
-0.67044
-0.666329
-0.661564
-0.712033
-0.709124
-0.705525
-0.71159
-0.711058
-0.702834
-0.66526
-0.665988
-0.667348
-0.671443
-0.692635
-0.697045
-0.667285
-0.66141
-0.713716
-0.70197
-0.71115
-0.708132
-0.710472
-0.665236
-0.664911
-0.686257
-0.706458
-0.709501
-0.699687
-0.683314
-0.669762
-0.692048
-0.672448
-0.712354
-0.712875
-0.669951
-0.702791
-0.66446
-0.714615
-0.752966
-0.763673
-0.765963
-0.769256
-0.764794
-0.746
-0.758787
-0.762017
-0.767465
-0.738261
-0.770063
-0.768697
-0.765286
-0.768233
-0.762898
-0.769577
-0.766292
-0.76915
-0.764047
-0.770769
-0.711101
-0.711567
-0.71193
-0.711777
-0.711585
-0.710897
-0.712291
-0.755136
-0.761917
-0.750701
-0.755696
-0.720632
-0.728884
-0.744927
-0.760805
-0.723846
-0.758678
-0.740645
-0.726324
-0.719905
-0.763304
-0.763091
-0.748183
-0.76132
-0.763235
-0.720803
-0.726098
-0.734899
-0.722298
-0.732931
-0.728622
-0.722782
-0.731806
-0.736978
-0.717121
-0.728981
-0.758182
-0.753391
-0.719949
-0.726094
-0.742625
-0.748325
-0.713943
-0.73105
-0.724999
-0.719241
-0.771349
-0.764393
-0.767049
-0.765567
-0.762315
-0.766422
-0.766949
-0.7687
-0.763598
-0.760613
-0.76276
-0.75955
-0.765319
-0.71467
-0.713848
-0.714559
-0.715463
-0.715602
-0.754061
-0.749432
-0.758594
-0.719766
-0.721529
-0.742069
-0.723102
-0.71895
-0.714153
-0.764823
-0.761927
-0.758345
-0.764397
-0.763867
-0.755702
-0.717762
-0.718461
-0.719924
-0.723999
-0.74571
-0.749994
-0.719791
-0.71419
-0.766464
-0.754941
-0.763903
-0.760948
-0.763277
-0.717776
-0.717408
-0.738793
-0.758919
-0.762315
-0.752509
-0.736222
-0.722332
-0.744534
-0.725099
-0.76511
-0.765697
-0.722548
-0.755623
-0.717063
-0.767385
-0.805901
-0.816595
-0.818836
-0.822138
-0.817683
-0.798892
-0.811769
-0.814983
-0.820336
-0.791087
-0.82284
-0.82149
-0.818185
-0.821052
-0.815696
-0.822343
-0.819151
-0.821924
-0.816961
-0.8236
-0.763378
-0.763995
-0.764423
-0.764308
-0.764141
-0.762921
-0.764857
-0.808039
-0.814821
-0.803618
-0.80859
-0.773137
-0.781474
-0.797744
-0.813598
-0.776421
-0.811533
-0.793373
-0.77872
-0.772467
-0.81612
-0.815802
-0.801003
-0.814071
-0.815988
-0.77338
-0.778672
-0.787535
-0.774755
-0.78545
-0.781043
-0.774988
-0.784254
-0.789464
-0.769156
-0.781376
-0.810449
-0.805702
-0.772058
-0.778411
-0.795138
-0.800726
-0.766516
-0.783724
-0.777611
-0.771822
-0.824265
-0.817198
-0.81986
-0.81837
-0.814688
-0.819188
-0.8197
-0.821515
-0.816443
-0.813531
-0.815645
-0.812459
-0.818113
-0.767217
-0.766407
-0.766994
-0.767985
-0.768173
-0.80676
-0.80213
-0.811327
-0.772041
-0.773944
-0.794791
-0.77568
-0.771527
-0.766407
-0.81755
-0.814749
-0.81125
-0.817125
-0.816616
-0.808629
-0.77032
-0.770984
-0.772507
-0.77641
-0.798409
-0.802857
-0.772217
-0.766182
-0.81923
-0.807826
-0.816641
-0.813824
-0.816055
-0.770353
-0.769841
-0.791557
-0.811847
-0.81503
-0.805432
-0.788829
-0.774911
-0.797364
-0.777439
-0.817858
-0.818517
-0.774877
-0.808544
-0.769318
-0.820143
-1.34135
-1.28502
-1.31582
-1.29116
-1.3438
-1.33715
-1.02122
-1.03821
-1.00646
-1.05786
-0.973293
-1.0165
-0.985078
-1.01903
-1.06746
-1.27663
-1.22688
-1.05059
-0.928391
-0.918
-0.9573
-0.908492
-0.924133
-0.951352
-0.950677
-1.00528
-1.87806
-1.91292
-1.86807
-1.89587
-1.85466
-1.8859
-1.84477
-1.90379
-1.92223
-1.88564
-1.73018
-1.72405
-1.75727
-1.70391
-1.7414
-1.72797
-1.77603
-1.72895
-1.75745
-1.71103
-1.70312
-1.68251
-1.73253
-1.77624
-0.142324
-0.150848
-0.113242
-0.166392
-0.148651
-0.125195
-0.131188
-0.102109
-0.128092
-0.130326
-1.10652
-1.07441
-1.09324
-1.13907
-1.15863
-1.1585
-1.08577
-1.07121
-0.525614
-1.13464
-1.12866
-0.0837933
-0.049103
-0.0831313
-0.0839801
-0.0692049
-0.0592368
-0.123332
-0.119053
-1.6631
-1.71244
-1.67702
-1.66381
-1.69327
-1.645
-1.66086
-1.63176
-1.68132
-1.68572
-1.03295
-1.10222
-1.05171
-1.61212
-1.94673
-1.92837
-1.91532
-1.95609
-1.94643
-1.87606
-1.90155
-1.92942
-1.95677
-1.87558
-1.84089
-1.84601
-1.83181
-1.83562
-1.88847
-0.842573
-0.870156
-0.845486
-0.837368
-0.906291
-0.926062
-0.923738
-0.82864
-0.888328
-0.898442
-0.849092
-0.884403
-0.528272
-0.5729
-0.871608
-0.896675
-1.7933
-1.83001
-1.83941
-1.7917
-1.85718
-1.82723
-1.79765
-1.77178
-1.36909
-1.37886
-1.41869
-1.42002
-1.4036
-1.37899
-1.37557
-0.239892
-0.182054
-0.222802
-1.36992
-1.32363
-1.32484
-0.621854
-0.646903
-0.671075
-0.67557
-0.583576
-0.581322
-0.573008
-0.65986
-0.600944
-0.618557
-0.665789
-0.620422
-0.646158
-0.571489
-0.524259
-0.577706
-0.522636
-0.679419
-0.639335
-0.0163698
-0.0400852
-0.00921181
-0.00302312
-0.00210515
0.0126927
-0.00256767
-0.0267564
-0.0162485
-0.0473001
-0.0501437
0.0147697
-1.04715
-1.11049
-1.04747
-0.992093
-1.11542
-1.01444
-1.07568
-0.960962
-0.942683
-0.956778
-0.999404
-0.971037
-0.955776
-1.11523
-1.3988
-1.34008
-1.40082
-1.3588
-0.407842
-0.388636
-0.456593
-0.405709
-1.36232
-1.45514
-1.43468
-1.39323
-1.42731
-1.37249
-1.54804
-1.52034
-1.59566
-1.57343
-1.56575
-1.57664
-1.61091
-1.37171
-1.32564
-1.37358
-1.38837
-1.38233
-1.32967
-1.37526
-1.33685
-1.42414
-1.42387
-1.4089
-1.10818
-1.03742
-1.0815
-1.10867
-1.10007
-1.16598
-1.05657
-1.08905
-1.08814
-1.81827
-1.79524
-1.74932
-1.76759
-1.87083
-1.8217
-1.83511
-1.79662
-1.79135
-1.7848
-1.83174
-1.8438
-1.81842
-1.88773
-1.88846
-1.87471
-1.81423
-1.85738
-1.8921
-1.85866
-0.632435
-0.673731
-0.651123
-0.616695
-0.610952
-0.650701
-0.643858
-0.687902
-1.84863
-1.88747
-1.82803
-1.91126
-1.88451
-1.83726
-1.83201
-1.67197
-1.60678
-1.6315
-1.64853
-1.66377
-1.63605
-1.60672
-1.94782
-1.95711
-1.88343
-1.9344
-1.94983
-1.95568
-1.93064
-1.62508
-1.66325
-1.66808
-1.59056
-1.66318
-1.67278
-1.62438
-1.66726
-0.467276
-1.65129
-1.58614
-1.58918
-1.65731
-1.6157
-0.478971
-0.523805
-0.504134
-0.48164
-1.54657
-1.5492
-1.8347
-1.88095
-1.80783
-1.84333
-1.1828
-1.10751
-1.1519
-1.11827
-0.624915
-0.670236
-0.663939
-0.660031
-0.645614
-0.606179
-0.621744
-0.626068
-0.573551
-0.600593
-0.0309905
-0.0153461
-0.0317357
0.0141084
-0.00729406
-0.010191
0.00978435
-0.0346325
-0.00767488
0.0163577
-0.0128919
-0.004457
-0.0459646
-0.0440817
-0.0268547
-0.00317871
0.0146375
0.0215159
0.0192141
-0.0680404
-0.0968849
-0.0640066
-0.0594198
-0.00621179
-1.11333
-1.06485
-1.11764
-1.12598
-1.07689
-0.0814667
-0.0587675
-0.0891193
-1.10053
-1.1126
-1.97915
-1.98017
-1.90818
-1.91807
-1.98566
-1.9154
-1.98832
-1.87252
0.00472049
-0.0172432
0.00747352
-0.0333574
-0.0260615
0.0168234
0.00160087
-0.0206695
0.0432217
-0.460323
-0.486561
-0.900593
-0.944859
-0.926677
-0.884765
-0.907819
-0.92626
-0.0793833
-0.0909239
-0.127745
-0.112488
-0.891593
-0.88068
-0.839771
-0.870513
-0.887282
-0.83684
-0.828354
-1.24202
-1.30789
-1.31564
-1.2749
-1.2938
-1.22422
-1.24938
-0.443325
-0.470811
-0.406046
-0.456193
-1.19308
-1.2059
-1.8483
-1.8058
-1.87113
-1.85151
-1.84274
-1.80266
-1.80481
-1.87933
-1.85715
-0.0512896
-0.0300091
-0.0276747
-0.542295
-0.495413
-0.476061
-0.529583
-0.551308
-0.528089
-0.497882
-0.503001
-0.456925
-0.51591
-0.53892
-0.548476
-0.114212
-0.0732108
-0.0206654
-0.0341204
-0.0435338
-0.0304551
-0.0527629
-0.0945783
-0.0566441
-0.71431
-0.684131
-1.50196
-1.53486
-1.54692
-1.5318
-1.5873
-1.54867
-1.59629
-1.6152
-1.65967
-1.58252
-1.62774
-1.59313
-1.62144
-1.51549
-1.51948
-1.5586
-1.51029
-1.55358
-1.57955
-1.52453
-1.52656
-0.519211
-0.563638
-0.529348
-0.47378
-0.447192
-0.540887
-0.490979
-1.33079
-1.36955
-1.34968
-1.31454
-1.37574
-0.724485
-0.734832
-0.749258
-0.728961
-0.751584
-0.759062
-0.718592
-1.29831
-0.579268
-0.569077
-0.537491
-1.28799
-1.29664
-0.472114
-0.0517124
-0.940803
-0.917733
-0.887452
-0.905241
-0.874814
-0.654167
-1.5471
-0.845076
-0.841423
-0.82598
-0.817128
-0.844286
-0.847333
-1.77089
-1.80612
-1.82854
-1.76458
-1.7831
-1.80299
-1.84334
-1.60472
-1.65334
-1.67569
-1.61032
-1.57654
-1.58055
-1.54786
-1.58916
-0.0151207
-0.0381313
-0.000685097
-0.0345088
-0.0316253
-0.049249
-0.0619093
-0.0191768
-0.0639763
-0.0247742
0.00667981
0.00387307
0.0113286
0.0390867
-1.17291
-1.1732
-1.14082
-1.19662
-1.19311
-1.22942
-1.20349
-1.22998
-0.839031
-0.802377
-0.845777
-0.87168
-0.564527
-0.519636
-0.56207
-0.863045
-0.862202
-0.82252
-0.812827
-0.794734
-0.780597
-0.784821
-0.804047
-0.898125
-0.865746
-0.873417
-0.918044
-0.923153
-0.873478
-0.933577
-0.943642
-0.935455
-0.847382
-0.858645
-0.874122
-0.924801
-0.946817
-0.499747
-0.546873
-0.940107
-0.866267
-0.901767
-0.887155
-0.989089
-0.985543
-0.988054
-0.926704
-0.652977
-0.602146
-0.617462
-0.591817
-0.682963
-0.734461
-0.456459
-0.926858
-0.485669
-0.48563
-0.443077
-0.442921
-0.452126
-0.294786
-0.24349
-0.279697
-0.719315
-0.747265
-0.785308
-0.775346
-0.705949
-0.690337
-0.7667
-0.808792
-1.0366
-1.08596
-1.07667
-1.00561
-1.03736
-1.04108
-1.11405
-1.14155
-1.17298
-1.13478
-0.125644
-0.772347
-0.729159
-0.729759
-0.747611
-0.777598
-0.799398
-0.812528
-0.783397
-0.745181
-0.809518
-0.784913
-0.978213
-0.936406
-0.92077
-1.00643
-0.964434
-0.958806
-1.00191
-1.71495
-1.72296
-1.70618
-1.75131
-0.605728
-1.70117
-1.689
-1.72456
-0.67944
-0.679602
-0.635001
-0.562594
-0.476742
-0.527457
-0.496669
-0.50121
-0.498347
-0.539641
-1.7077
-0.910994
-0.944121
-0.937674
-0.864665
-0.864862
-0.882441
-0.881996
-0.0564497
-0.0480836
-0.880109
-0.897647
-0.927964
-0.943557
-0.946268
-0.934018
-0.776157
-1.90753
-1.86685
-1.8705
-1.85143
-1.90614
-1.88355
-1.92903
-1.96269
-1.96054
-1.95176
-1.92393
-1.89304
-1.93817
-1.89627
-1.44754
-1.47468
-1.4188
-1.44533
-1.47175
-1.44175
-1.45935
-1.50095
-1.45993
-1.39669
-0.837243
-0.81486
-0.11184
-0.0876024
-0.0992859
-0.134962
-0.814367
-0.870262
-1.70854
-1.76461
-1.94466
-1.98853
-1.95902
-1.97798
-1.91272
-1.99373
-0.14411
-1.82398
-1.874
-1.83694
-1.87223
-1.86381
-1.86807
-1.81804
-1.80216
-1.76962
-1.78528
-1.73332
-1.7685
-1.75972
-1.7465
-1.77704
-1.75042
-1.63559
-1.58804
-1.7979
-1.68655
-1.82812
-1.80552
-1.76449
-1.8285
-0.17513
-0.161815
-0.199465
-0.152508
-1.76782
-0.666216
-0.655686
-0.61051
-0.616143
-0.704703
-1.48471
-1.4296
-1.46634
-1.40433
-0.287005
-0.251187
-0.261235
-0.257572
-0.262722
-0.306519
-0.274287
-0.31612
-0.309573
-0.307532
-0.2093
-0.175408
-0.191662
-0.171669
-0.236015
-0.263218
-0.21787
-0.189445
-0.244564
-0.267596
-0.184725
-0.380091
-0.310385
-0.329941
-0.384685
-0.31198
-0.367879
-0.36756
-0.410961
-0.454013
-0.409483
-0.415623
-0.0160225
-0.0505333
0.0468767
0.0260079
-0.0219164
-0.130259
-0.145633
-0.175487
-0.367089
-0.34011
-0.350294
-0.339329
-0.284758
-0.396824
-0.399488
-1.00026
-0.975713
-0.930804
-0.967859
-0.94068
-0.134592
-0.935611
-0.973691
-0.224457
-0.182548
-0.230633
-0.202424
-0.158145
-0.112911
-0.0871265
-0.0647333
-0.0937966
-0.128722
-0.191078
-0.220678
-0.206961
-1.35432
-1.34141
-1.37958
-1.43141
-1.40631
-1.45352
-1.42392
-0.461601
-0.416264
-0.432503
-0.46566
-0.417106
-1.70111
-1.73789
-1.70866
-1.66925
-1.71303
-1.72782
-0.299307
-1.71242
-1.71006
-0.297708
-0.245417
-1.24043
-1.2711
-1.22617
-1.28592
-1.29299
-1.2087
-1.22093
-1.23563
-1.27042
-0.418255
-0.254113
-0.259653
-0.214552
-1.80155
-1.79619
-1.12348
-0.195777
-0.218665
-0.228846
-0.790457
-0.798176
-0.793033
-0.780997
-0.826788
-0.368518
-0.790614
-1.98015
-1.99126
-0.418713
-0.39517
-0.401907
-0.448939
-0.463344
-1.7159
-1.7616
-1.67103
-1.67853
-1.73966
-1.75722
-1.72799
-1.69672
-1.68006
-1.75168
-1.72673
-1.72327
-1.73631
-1.74951
-1.78265
-1.74464
-1.70394
-1.7464
-1.78809
-1.91953
-1.91657
-1.92421
-1.91964
-1.9202
-1.97196
-1.18643
-1.16764
-1.15282
-1.18005
-1.15412
-1.16454
-1.1293
-0.359445
-0.326697
-0.318321
-1.4813
-1.46646
-0.32057
-0.311231
-0.268486
-0.292524
-1.43795
-1.48109
-1.45951
-1.4201
-1.47055
-1.62095
-1.57518
-1.59786
-1.56608
-1.64505
-0.343308
-0.333168
-0.353013
-0.301989
-1.66551
-1.14551
-1.18837
-1.20639
-1.2918
-0.0823833
-0.110583
-0.0584274
-0.0997661
-0.117552
-0.157312
-0.163041
-0.148031
-1.11231
-1.10482
-0.791068
-0.769578
-0.764507
-1.60725
-1.5424
-1.57852
-1.64659
-1.67022
-1.65648
-1.63471
-1.03368
-1.07737
-1.03843
-1.03996
-1.71818
-1.75691
-1.74413
-1.08899
-1.12475
-1.17225
-1.16083
-1.09975
-1.15786
-1.0977
-0.100473
-0.0748883
-0.108764
-1.04708
-0.945134
-0.99327
-0.120428
-0.12882
-0.121597
-0.167933
-1.48684
-1.49644
-1.43906
-1.50046
-1.47412
-1.51859
-1.55262
-1.46173
-1.53629
0.00090064
0.00140253
-0.00484044
0.00707241
0.0178686
-0.237216
-0.249445
-0.188187
-0.20498
-0.141002
-1.25861
-1.28029
-0.129555
-0.151795
-1.24374
-1.21471
-1.23912
-1.32137
-1.58319
-1.61547
-1.62834
-1.57042
-1.56559
-1.5736
-1.56123
-1.53957
-1.53001
-0.0862414
-0.117133
-0.112886
-0.120004
-1.54478
-1.53921
-0.0834098
-0.110748
-0.103727
-0.0883751
-0.104624
-0.0762012
-1.77175
-1.08612
-1.06614
-1.03539
-1.05933
-0.365543
-1.04827
-1.04449
-1.1189
-0.513887
-1.10057
-1.04498
-1.0901
-1.10839
-1.11628
-1.04291
-1.0523
-1.13264
-1.63855
-1.6359
-1.66614
-1.62527
-1.04275
-1.08209
-1.09386
-1.12315
-0.0721233
-0.106923
-0.0783322
-0.116759
-0.0547403
-0.112862
-0.261289
-0.253258
-0.240162
-0.282034
-1.41319
-1.44261
-1.64303
-1.64298
-1.68158
-1.57966
-1.60649
-1.6282
-1.58015
-0.31625
-1.67526
-0.434637
-0.515198
-0.48984
-0.438086
-0.0982511
-0.12226
-0.086236
-0.0736415
-0.120181
-0.083221
-0.198259
-0.152349
-0.241949
-0.188865
-0.199992
-0.157523
-0.199917
-0.193368
-0.194093
-1.6219
-1.07105
-1.06906
-1.03227
-0.6989
-0.743757
-0.700471
-0.29734
-1.89636
-1.91251
-1.15821
-1.18112
-1.15015
-1.12891
-1.13377
-0.0727312
-0.106633
-0.0884555
-0.130533
-0.0547427
-0.0327213
-0.0505133
-0.222779
-0.0621258
-1.71318
-0.280324
-0.302114
-0.288019
-0.332397
-1.73046
-0.29922
-0.286382
-0.296548
-0.270029
0.0182021
0.0104018
-0.00239131
-0.00307743
-0.00357166
-0.000885894
-0.0249992
0.0399154
0.0158152
0.0228674
-0.0289276
-0.334832
-0.316314
-0.172343
-0.14627
-0.174396
-0.180177
-0.136881
-0.182232
-0.145178
-0.148054
-0.136319
-0.642617
-0.675252
-0.682147
-0.687745
-1.84359
-1.86557
-1.80967
-1.85233
-0.67533
-0.651063
-0.623859
-0.602269
-0.639012
-0.59168
-0.642306
-1.66489
-1.74888
-1.73518
-1.77485
-1.76342
-1.75535
-1.70084
-0.733987
-0.728511
-0.718716
-0.746132
0.0183042
0.036643
0.0410843
0.0114904
-0.00203982
0.00469072
0.0207745
0.040112
-1.17119
-1.1275
-1.10581
-1.95914
-1.80499
-1.48194
-1.47668
-1.43384
-1.4058
-1.35371
-1.04335
-0.990871
-1.05414
-1.04252
-0.990064
-0.974254
-1.00249
-1.00682
-1.00438
-1.32746
-1.25758
-1.2743
-1.3284
-1.61333
-0.903136
-0.88906
-0.905207
-0.862258
-0.921408
-0.955752
-0.312382
-0.790392
-0.779597
-0.035248
-0.0290471
-0.742199
-0.724113
-0.732698
-0.0237566
0.00247388
0.00777952
0.0437315
0.0358368
0.0450063
0.041427
-0.00390874
0.0412051
0.0209387
0.0568112
0.047066
-1.7258
-1.7142
-1.67022
-1.7203
-1.77108
-1.75778
-1.4029
-1.30266
-1.3026
0.0520759
-1.0074
-1.04668
-0.998826
-0.970662
0.0420428
-1.70031
-1.6537
-1.6733
-1.67491
-1.68213
-1.72322
-1.71323
-1.71736
-1.75297
-1.69958
-1.68348
-1.73016
-1.68411
-0.0388164
-0.0174274
-0.0352864
-0.0434749
-0.267236
-0.0255768
-0.029266
-0.0737997
-0.0408781
-0.0319856
-1.91387
-1.97049
-1.97063
-1.98063
-1.90502
-1.94258
-1.54056
-1.51841
-1.52166
-1.57423
-1.57823
-1.54695
-1.59791
-1.57146
-0.893364
-0.874355
-0.865055
-0.895092
-0.846662
-0.791819
-0.796606
-0.812301
-0.830909
-0.88166
-0.894198
-0.0109633
0.020264
-0.0214434
-0.724972
-0.723637
-0.769795
-0.848444
-0.796431
-0.821222
-0.769785
-0.545355
-0.593716
-0.601252
-0.538814
-1.62083
-1.67421
-1.65895
-1.04485
-1.0564
-1.1141
-0.249581
-1.55251
-1.4874
-0.0279625
-0.506422
-0.457538
-0.48676
-0.468027
-0.520837
-0.0559317
-0.0307583
-0.0557481
-0.521838
-0.468523
-0.512075
-1.63363
-1.58698
-1.57221
-1.63252
-1.6683
-1.63822
-1.5934
-0.0486852
-1.55573
-0.159092
-1.61653
-1.60207
-0.0542433
-0.0545119
-1.5184
-0.483276
-0.51469
-0.531003
-0.49555
0.026693
0.0298065
0.0355271
-0.511245
-1.81065
0.0421332
0.039717
0.0294708
-1.84775
0.0215411
-0.492994
-0.00894279
-0.0132577
-0.879042
-0.925927
-0.82529
-0.823716
-0.880739
-1.907
-1.85666
-1.9416
-1.94993
-1.58056
-1.59101
-1.58326
-1.55637
-1.56108
-0.262977
-1.71907
0.0436972
-1.87833
-1.88838
-1.82674
-1.92097
-1.83665
-0.0274972
-0.0310647
-0.0280828
-0.0525404
-0.0665552
-1.69699
0.00156882
-0.0227473
-0.977266
-0.969034
-1.01613
-1.0034
-0.996224
-0.933195
-0.978376
-0.988153
-0.996161
-0.105869
-0.938976
-0.950383
-0.985317
-0.954378
-0.916443
-0.905649
-0.886778
-0.979773
-0.931219
-0.496973
-0.533314
-0.4874
-0.513985
-0.53271
-0.544411
-0.489712
-0.00414105
-0.00290944
-0.0620087
-0.0573839
-0.0160639
-0.0280678
-0.0778715
-0.0510643
-0.155465
-0.0976031
-1.5656
-1.5075
-1.55977
-1.56326
-1.53705
-1.59349
-0.200891
-1.62468
-1.59029
-1.51554
-1.45923
-1.454
-1.85402
-1.81371
-1.23664
-1.25281
-1.65101
-1.5868
-1.61713
-1.23296
-1.2668
-1.2755
-1.65369
-1.59762
-1.23326
-1.77831
-0.164253
-0.155901
-1.59254
-1.62734
-0.409028
-0.441841
-0.379351
-0.384548
-0.416142
-0.430435
-0.394594
-0.425112
-0.3849
-1.50536
-1.44812
-0.0871375
-1.49244
-1.54388
-1.57937
-1.5971
-1.54016
-0.215408
-0.771042
-0.754473
-0.736751
-0.691865
-0.757553
-0.691845
-0.801346
-0.796379
-1.10189
-1.04513
-1.05143
-1.49293
-1.03203
-1.11873
-1.91126
-1.93283
-1.88465
-1.94351
-0.245443
-0.214324
-0.222703
-0.208342
-0.263125
-0.279446
-0.268605
-0.263147
-0.27327
-0.124584
-0.195532
-0.411803
-0.357417
-0.364974
-0.362537
-0.415054
-0.354219
-0.933838
-0.912441
-0.961392
-1.22156
-1.23343
-1.25111
-1.26174
-0.957456
-0.913394
-0.874958
-0.863753
-0.955557
-0.994737
-0.810958
-0.829986
-1.86752
-1.89949
-1.70668
-1.75773
-1.78187
-1.76971
-1.71831
-0.892302
-0.961937
-0.949227
-1.00294
-0.968197
-0.970984
-0.917458
-0.977502
-1.05071
-0.170416
-0.166433
-1.78729
-1.81167
-1.83923
-0.627434
-1.01389
-0.664531
-0.590877
-1.11568
-1.03945
-1.05959
-0.649845
-1.88419
-1.8237
-1.8509
-1.82144
-0.690155
-0.726039
-0.657459
-0.659882
-1.02038
-0.982529
-0.219482
-0.25965
-0.247129
-0.210885
-0.222369
-0.249716
-0.798599
-0.771433
-0.727905
-0.764949
-0.681505
-0.703589
-0.725809
-1.72381
-1.76618
-1.65604
-0.985464
-1.00419
-0.970225
-1.30254
-1.36635
-1.00827
-0.987095
-0.986102
-0.947378
-1.01638
-0.78804
-1.87481
-1.9134
-1.81953
-1.89463
-1.08592
-1.13941
-1.06764
-1.12484
-0.280391
-0.206022
-1.01725
-0.793795
-1.03525
-1.0035
-1.66026
-1.66535
-1.70292
-1.75735
-0.723384
-0.678451
-1.41023
-1.36719
-0.717306
-0.689191
-0.718884
-1.90462
-0.173807
-0.194529
-0.153345
-1.87801
-1.92915
-1.92528
-1.95225
-0.385127
-0.383174
-0.39983
-0.367862
-0.372619
-0.324549
-0.35811
-1.2983
-1.2085
-1.33976
-0.829168
-0.885003
-1.62734
-0.635882
-0.634315
-0.695311
-0.346075
-0.35336
-0.510205
-1.01678
0.0418591
0.041256
-0.783866
-0.788585
-0.813326
-0.706436
-0.754854
-0.763501
-0.816066
-0.765604
-0.728648
-0.669923
-0.630662
-0.687866
-0.615657
-0.5921
-0.597602
-0.651125
-1.67073
-1.62264
-1.62857
-1.67002
-0.753275
-0.774535
-0.809005
-0.732106
0.0108464
-0.605413
-0.603407
-0.582427
-0.425406
-0.0109207
-1.32473
-1.88057
-1.693
-1.68466
-1.77807
-1.79433
-1.78895
-1.76437
0.0468055
-1.77535
-1.73316
-1.84569
-1.79848
-1.82573
-1.79403
-1.81391
-1.79336
-1.9029
-1.94102
-1.17981
-1.2378
-1.1895
-1.94522
-1.89183
-0.958992
-0.934332
-0.896759
-0.880159
-0.571604
0.0217133
-1.85934
-1.44113
-1.47357
-1.38012
-1.32967
-1.71233
-1.70929
-1.67983
-1.40538
-1.36612
-0.440531
-0.431378
-0.469483
-0.0260685
-0.057751
-0.08161
-0.0524603
-0.0818571
-1.82153
-1.86746
-1.86991
-0.676045
-0.713637
-0.631882
-1.92416
-0.738529
-0.639571
-0.611232
-0.622599
-0.659206
-0.264891
-0.328928
-0.308903
-0.334396
-0.306783
-0.227698
-0.178228
-0.222987
-0.203375
-0.151212
-0.180947
-0.25473
-0.176634
-0.160138
-0.28871
-0.23554
-0.267372
-0.314938
-0.280067
-0.314624
-0.223217
-0.815972
-0.831521
-0.833594
-0.848469
-1.09844
-1.04415
-0.377851
-0.36937
-0.360515
-0.412312
-1.42411
-1.3536
-1.40053
-1.51067
-0.558732
-0.598785
-1.31276
-1.359
-1.29598
-1.3766
-1.31351
-1.74067
-0.280161
-0.230506
-0.0791813
-0.0562997
-0.490527
-0.371608
-0.377719
-0.400517
-0.398836
-0.454448
-0.409366
-0.428563
-0.456562
-0.442709
-0.420535
-0.478027
-0.493491
-0.270499
-0.305706
-1.09916
-0.418626
-0.379795
-0.485382
-0.506255
-0.530678
-0.433949
-0.592681
-0.551984
-0.126077
-0.588397
-0.67048
-0.734601
-0.0673296
-0.337543
-0.246835
-0.286613
-0.251728
-0.112455
-1.71969
-1.71893
-1.67806
-1.0784
-0.218118
-0.181208
-0.170129
-0.211852
-0.217374
-0.273702
-0.210361
-0.203243
-0.187943
-0.239376
-0.0355548
0.0371726
0.0361973
-0.00252947
-0.0853248
-0.0488178
0.04156
0.0338896
-0.860248
-0.916762
-0.974547
-1.02665
-0.963098
-0.935274
-0.210904
-0.210093
-1.66047
-1.87061
-0.17994
-0.227624
-0.76085
-0.771692
-0.808662
-0.805512
-0.364737
-0.347255
-0.868005
-0.85984
-1.18647
-1.17064
-0.347376
-0.343024
-0.400747
-0.395732
-0.34436
-0.372667
-0.164875
-0.15482
-0.158271
-0.1163
-0.0307506
-0.839769
0.0400948
-0.0451922
-1.31338
-1.34592
-1.2681
-1.23524
-1.27965
-1.81988
-1.70437
-0.142254
-0.137217
-1.11303
-1.0677
-1.09917
-1.0604
-1.01775
-1.00569
-1.02549
-1.96989
-0.00169297
-1.57662
-1.46773
-1.49156
-1.50958
-1.56695
-0.0104898
-1.50403
-1.51844
-1.47469
-1.66088
-0.0733703
-0.960565
-0.732129
-1.78926
-0.816229
-1.09438
-0.666807
-0.832212
-0.794805
-0.741039
-0.758496
-0.824901
-0.850868
-1.00671
-1.01742
-1.36695
-1.82094
-1.79521
-1.78419
-0.921923
-0.860875
-0.698174
-1.94837
-1.88463
-1.75057
-0.000173065
-0.00808406
-0.847205
-0.839393
-1.46468
-1.52051
-1.54069
-0.709935
-0.667934
-0.20358
-0.211869
-0.255286
-0.259678
-0.244321
-0.214702
-0.170771
-0.728009
-0.75591
0.0416976
-0.00464194
-0.127155
-1.62256
-0.84401
-0.148966
-1.19176
-1.19977
-1.12795
-1.10879
-1.8835
-1.84635
-0.548578
-1.62812
-1.61936
-1.65078
-0.774409
-0.727656
-0.0706966
-0.0456585
-1.44261
-1.45769
-1.41023
-1.41007
0.0373947
-0.407861
-0.56812
-0.667725
-0.629467
-0.265161
-0.322228
-0.801348
-0.232013
-0.488146
-0.4534
-0.468237
-0.533538
-0.590021
-0.568714
-0.511984
-0.507195
-0.562711
-0.551543
-1.12468
-0.134915
-0.141022
-0.344729
-0.528468
0.0330333
-1.11729
0.0441082
-1.11149
-0.0218932
-1.78378
-0.0857159
-0.773002
-0.823709
-0.123086
0.0352557
-1.98071
-0.90387
-0.806853
-0.851533
-0.981594
-0.951415
-1.02097
-1.0894
-0.803938
-1.36299
-1.37451
-1.67801
-1.83944
-1.77657
-1.6609
-0.232265
-1.54618
-1.54396
-1.54831
-1.27683
-1.07014
-0.461254
-0.421331
-0.451084
-1.52869
-1.12617
-1.08795
-1.03257
-1.02472
-1.00491
0.0202478
-0.330429
-0.777796
-0.836363
-0.377218
-0.441759
-0.192614
-0.131917
-0.562365
-0.576341
-0.319165
-0.333057
-0.964307
-1.69503
-1.31749
-0.753329
-0.779627
-0.282338
-0.291955
-0.175346
-1.12939
-0.118109
-0.87795
-0.40354
-1.53442
0.0206076
-0.42181
-0.450581
-0.0274725
0.0423523
0.041757
-0.128906
-0.0784463
-0.219911
-0.275205
-1.15484
-1.07571
-0.597037
-0.646322
-1.71814
-0.310712
-0.334438
-0.298154
-1.67111
-0.778179
-0.756238
-1.8569
-1.89652
-0.130988
0.0395104
-1.95816
-1.26521
-1.48683
-1.71294
-1.70123
-1.52741
-1.57192
-0.122025
-0.131312
-1.79812
-1.81272
-1.77282
-1.74486
-1.84375
-0.0892397
-1.25578
-0.888781
-1.00242
-0.739655
-0.796455
-0.780796
-1.08098
-1.29944
-1.27862
-1.28735
-1.23445
-1.26419
-1.27195
-1.3049
-0.0284794
-1.84408
-0.888513
-0.850118
-0.86563
-1.68319
-1.80723
-1.79799
-0.852057
-0.104605
-1.78533
-1.76617
-1.96864
-1.96022
-1.85765
-0.183227
-0.17066
0.020853
0.0312426
-1.53379
-0.143497
-0.189774
-1.52588
-1.57653
-1.52144
-1.08592
-0.502101
-1.15864
-1.21121
-1.55843
-0.521173
-1.34663
-1.20179
-0.590132
-0.569693
-1.60067
-1.77337
-0.994888
-1.0171
-0.962593
-0.968662
-0.161971
-0.11444
-0.437279
-0.36584
-0.407157
-0.408677
0.017697
-1.7233
-1.70103
-1.72914
-1.7505
-0.0878392
-0.225697
-0.229307
-1.82083
-0.281539
-0.221624
-0.179975
-1.35418
-1.53539
-1.03144
-1.03319
-1.22423
-1.20999
-1.06904
-0.379034
-0.143139
-1.58006
-0.0846826
-0.427904
-0.45482
-0.711843
-0.674808
-0.750342
-1.61038
-1.56626
-0.544379
-0.539765
-0.0506086
-0.558662
-0.537441
-0.631273
-0.668815
-0.204301
0.000698509
0.0445478
0.0436164
-0.0417467
-1.19944
0.0438553
-1.4576
-0.053078
-1.24404
0.0228762
0.0348627
0.0228991
0.033817
-1.10487
-1.20896
-0.383367
-1.02675
-1.11688
-1.21051
-1.11554
-1.27008
-0.737352
-0.648346
-0.2749
-0.165092
-1.22386
-1.05893
-0.382314
-0.712263
-1.20979
-1.05602
-1.09299
-1.11356
-1.07507
-1.90306
-0.0440133
-0.0560559
-0.0667113
-0.538809
-0.541555
-0.596149
-1.77127
-1.86837
-0.691518
-0.137633
-0.264296
-1.95718
-1.73918
-1.71273
-1.6598
-1.6884
-1.26998
-1.35766
-1.90347
-1.9829
-1.4219
-1.20828
-1.36787
-1.10847
-0.581443
-0.591647
-1.78532
-1.73016
-0.8447
-1.41516
-0.622127
-0.666094
-0.638787
-0.223942
-1.25234
-0.789853
-0.425752
-1.48369
-1.73621
-0.971798
-1.02196
-1.05204
-0.982738
0.0215088
0.0333578
0.0253836
-0.0315679
-0.741132
-0.584164
-0.635944
-1.21969
-0.896811
-0.941818
-0.58357
-0.792407
-0.990009
-0.937452
-0.327509
-0.342287
-0.490049
-1.20325
-0.298762
-1.04415
-1.03408
-1.17595
-1.53851
-0.314321
-1.0223
-1.60361
-0.650101
-0.43297
-0.553261
-0.589563
-0.423027
-0.436622
-1.99667
-1.74123
-0.523191
-0.316126
-0.243302
-1.70282
-0.559167
-0.978777
-1.98007
-0.388316
-0.533297
-0.605394
-0.60043
-0.637365
-0.605008
-1.92912
-1.93935
-1.90929
-0.697782
-0.696506
-1.96205
-0.114261
-1.96196
-1.91963
-0.0665943
-0.0391554
-0.0856999
-1.89741
-1.92381
-0.985339
-0.320831
-0.352911
-0.360808
-0.411191
-0.990726
-1.02309
-0.942684
-0.378017
-0.880966
-0.608443
-0.628175
-0.638613
-0.701393
-0.682878
-0.668952
-0.0851117
-1.01785
-1.90251
-1.99632
-1.83195
-1.86462
-0.684919
-0.706758
-0.372607
-0.911695
-1.99651
-1.08197
-1.93135
-1.78736
-0.333527
-0.334058
-0.33873
-0.297512
-1.85141
-1.73315
-1.33551
-0.723916
-0.691214
-1.07847
-1.33415
-0.846143
-1.16225
-1.99555
-1.09478
-0.377947
-0.395847
-0.550526
-0.60726
-1.60952
-1.10872
-0.321701
-0.369517
-0.347391
-0.829117
-0.304869
-0.317115
0.0174505
0.0336212
-0.476229
-1.7599
-1.96213
-0.3181
-0.393511
-0.319337
0.0471642
0.0210425
-0.401133
-0.494414
-0.257369
-0.589027
-0.574665
-0.353613
-1.80867
0.00775125
0.0424104
-0.0427541
-0.0217396
-0.00674585
0.02131
0.000225821
-1.72035
-1.70327
-1.20127
-0.514963
-0.534393
-1.75538
-0.348455
-0.344897
-0.566167
-0.327775
-0.990438
-0.274272
-0.239386
-0.22635
-1.0545
-0.291136
-0.399528
-0.776417
-0.736488
-0.277605
-0.396852
-0.340444
-0.437837
0.0121117
0.0276235
0.00261483
0.0375698
-0.0827511
0.0603094
-0.0765716
-0.0856314
-0.452774
0.0455472
-0.0311926
-1.07698
0.0216556
0.0283168
-1.10926
0.0395444
0.0410459
0.0383555
0.022097
-0.598987
-0.480457
-0.433651
-0.485532
0.042509
-0.0109957
-0.141423
-0.190503
-0.743962
-0.0881105
0.0425649
-0.532691
-0.602558
-0.793712
-0.460245
-1.27719
-0.68844
-0.384296
-0.568101
0.035117
-0.72286
-0.721403
-0.549912
0.0448091
-0.371179
-0.508158
-0.563491
0.0151686
-0.677023
-0.703291
-0.395208
0.0479
-0.387132
-0.0424542
-1.18407
-0.179026
-0.00267986
-0.181608
-0.231606
-1.67776
-1.06296
-0.111795
0.0263347
-0.081192
-0.671947
-0.0822675
-0.505844
0.0429455
-0.017749
0.0428605
0.0376786
0.0434005
0.0412993
0.0377465
-0.00428316
0.0508218
-0.0488991
-0.725016
-0.622569
-0.676444
-0.451169

SCALARS u_magnitude double 1
LOOKUP_TABLE  table4
0
0
0.0739334
0.0740737
0.00735094
0.00129523
0.00972594
0.0647526
0.00973492
0.00157859
0.00636986
0.0749902
0
0
0.959883
0.931408
0.767704
0.600706
0.654981
0.855825
0.639617
0.809881
0.941432
1.0862
1.11892
0.868575
1.02493
0.84639
1.69914
1.99556
2.0153
1.72192
1.51532
1.48936
1.53581
1.50975
1.20119
1.16766
1.1818
1.14842
2.03636
2.05637
0.253638
0.24486
0
0
0
0
0
0
0
0
0
0
0
0
0
0
0
0
0
0
0
0
0
0
0.0775234
0.0772461
0.0768937
0.0758672
0.0740652
0.0726236
0.0712317
0.0716759
0.0731316
0.0734476
0.073819
0.0753837
0.076239
0.0761208
0.0481853
0.0303065
0.0197184
0.0148391
0.0133004
0.0126326
0.0118862
0.0109876
0.010058
0.00920876
0.00848886
0.00793391
0.00756512
0.00618539
0.00501098
0.00387814
0.00284841
0.00197438
0.00126356
0.000722441
0.000396488
0.000498391
0.000854803
0.00205497
0.00334235
0.005232
0.00751732
0.0104963
0.0114919
0.0127245
0.0143135
0.0167752
0.0219256
0.0322735
0.0497472
0.0559506
0.0495336
0.0564839
0.0574096
0.0466572
0.0486785
0.00628615
0.00642647
0.00677064
0.00103279
0.000729147
0.000829812
0.00928551
0.00914078
0.00928335
0
0
0
0
0
0
0.043908
0.0295173
0.0211765
0.0169041
0.0146039
0.0129132
0.0115785
0.0105337
0.00753264
0.00527581
0.00344367
0.00223844
0.00119417
0.000880358
0.000630764
0.00043226
0.000295426
0.000546511
0.00125885
0.00231418
0.00360342
0.00499392
0.00674608
0.00725679
0.00794818
0.00884423
0.00998829
0.0114433
0.0132626
0.0155169
0.0183735
0.02234
0.0285966
0.0385567
0.054189
0.0773676
0.0775224
0.0761296
0.0743443
0.0731195
0.0717425
0.0699487
0.0694045
0.0694509
0.0698916
0.0705202
0.070281
0.0694825
0.0678426
0
0
0
0
0
0
0
0
0
0
0
0
0
0
0
0
0
0
0
0
0
0
0.957487
0.956057
0.954736
0.953658
0.952762
0.951837
0.950544
0.948455
0.945233
0.94113
0.936397
0.895866
0.861535
0.828664
0.79745
0.735879
0.706963
0.681041
0.658252
0.638878
0.623241
0.611556
0.603953
0.603773
0.607038
0.61032
0.613539
0.616646
0.619829
0.623188
0.626722
0.630498
0.634347
0.638379
0.642336
0.646318
0.650505
0.660132
0.668482
0.680224
0.695495
0.714142
0.735961
0.760599
0.787926
0.817794
0.850061
0.884565
0.921247
0.853409
0.840443
0.819365
0.79304
0.763924
0.73495
0.708227
0.685505
0.667559
0.654171
0.645049
0.638106
0.640608
0.64806
0.661567
0.681253
0.706978
0.737155
0.769138
0.8004
0.827402
0.846945
0.794843
0.743211
0.69144
0.895873
0.937517
0.980567
1.0448
1.00546
0.967401
0.996611
1.03568
1.07608
0.896602
0.852601
0.809576
0.758132
0.705913
0.653417
0.709683
0.763209
0.816065
0.812966
0.819147
0.828255
0.840271
0.855129
0.87269
0.8929
0.915837
0.966748
0.993592
1.02245
1.05328
1.09207
1.09796
1.10292
1.10675
1.10899
1.11011
1.11075
1.11144
1.11249
1.11398
1.1158
1.08463
1.0533
1.02427
0.997514
0.973134
0.951192
0.931708
0.914612
0.90006
0.888103
0.878795
0.872137
0.863296
0.858958
0.854572
0.850165
0.845736
0.841331
0.837206
0.833332
0.829675
0.826191
0.822803
0.819501
0.816237
0.812881
1.0167
0.999556
0.976467
0.949936
0.923143
0.898082
0.877022
0.861247
0.850692
0.845309
0.844146
0.85192
0.860353
0.872075
0.887288
0.906337
0.9285
0.952383
0.976125
0.997336
1.01407
1.02391
1.75338
1.80632
1.85593
1.90029
1.93771
1.96674
1.98628
1.99645
1.99888
2.00284
2.00832
2.00604
1.98664
1.95785
1.92077
1.87685
1.82779
1.77547
1.71382
1.70747
1.7029
1.70012
1.5061
1.49887
1.49366
1.49048
1.5418
1.59425
1.6467
1.6702
1.61852
1.56689
1.51942
1.52352
1.52761
1.53171
1.52662
1.5194
1.51417
1.51094
1.50567
1.50159
1.49751
1.49344
1.47978
1.42384
1.368
1.31226
1.25665
1.18938
1.18008
1.17332
1.16917
1.22463
1.28163
1.33865
1.39568
1.45271
1.19721
1.19327
1.1894
1.18559
1.17002
1.16074
1.15401
1.1499
1.15219
1.15598
1.15981
1.16369
1.09163
1.03484
0.978152
0.921583
0.865377
0.922499
0.977724
1.03331
1.089
1.14472
1.20045
1.25617
1.3119
1.36762
1.42335
1.47907
1.5348
1.59052
1.64625
1.70198
1.75771
1.81344
1.86917
1.9249
1.98063
2.03228
2.0282
2.02412
2.02004
2.01596
2.01187
2.00779
2.00372
1.99964
2.05226
2.04816
2.04405
2.03994
2.03583
2.03172
2.02762
2.02351
2.01941
2.03738
2.03989
2.0439
2.0494
2.00172
1.94711
1.89252
1.83798
1.78347
1.72901
1.6746
1.62025
1.56595
1.51173
1.45757
1.40351
1.34953
1.29566
1.24191
1.1883
1.13483
1.08152
1.02836
0.975316
0.922355
0.869406
0.816497
0.763727
0.71123
0.659188
0.607888
0.55778
0.509395
0.463258
0.41989
0.379674
0.343218
0.311603
0.285264
0.265109
0.251693
0.245289
0.246159
0.254017
0.253718
0.253364
0.252763
0.251976
0.251283
0.250604
0.249855
0.249001
0.248313
0.247643
0.246956
0.24611
0.245262
0.23589
0.233802
0.238156
0.249269
0.266435
0.289616
0.317964
0.350768
0.38742
0.427318
0.469938
0.514886
0.561781
0.610171
0.659824
0.710362
0.761499
0.813075
0.865012
0.917223
0.969674
1.02237
1.0753
1.12845
0.104907
0.139098
0.174346
0.20998
0.216776
0.179073
0.14188
0.105853
0.100045
0.140705
0.184679
0.231087
0.27954
0.32979
0.381481
0.434502
0.488704
0.543988
0.593469
0.534517
0.476693
0.419996
0.364538
0.310654
0.258568
0.208532
0.160655
0.115839
0.0195821
0.0132409
0.0110701
0.0104977
0.0100026
0.00931612
0.00849327
0.00705612
0.00661706
0.0309824
0.00766587
0.0471416
0.0302575
0.0197835
0.0142477
0.0097014
0.0082739
0.0115992
0.000149294
0.00214621
0.00124977
0.0038937
0.00294728
0.00161552
0.000633035
0.00046645
0.00280713
0.00234954
0.0020801
0.0205041
0.0112813
0.00544504
0.0071506
0.00929912
0.00476941
0.0162273
0.0102558
0.00200718
0.0159988
0.0198503
0.0492982
0.0338981
0.0391385
0.0414384
0.0384154
0.0340808
0.0403203
0.0460574
0.0423445
0.0435839
0.0489016
0.00504488
0.000796714
0.00116768
0.000322185
0.0002665
0.000655404
0.0027024
0.00379864
0.00137631
0.00710951
0.00475476
0.0032474
0.00213503
0.0477467
0.00807982
0.00682921
0.0117187
0.00938703
0.0086136
0.0188081
0.00751541
0.00577362
0.00698259
0.0117694
0.0170151
0.00556946
0.0098849
0.0200374
0.0297749
0.0264528
0.0234613
0.0349663
0.0244142
0.000935315
0.00520786
0.00182782
0.00378744
0.00361593
0.00579511
0.00511451
0.00831127
0.0124595
0.00377521
0.0136886
0.00345554
0.0267578
0.0210721
0.0127984
0.00250106
0.00204791
0.00381036
0.00936928
0.00602622
0.00547411
0.0227907
0.043061
0.0171607
0.00465604
0.00848839
0.0054661
0.00632824
0.0104018
0.0108503
0.00299056
0.00204556
0.0261254
0.000188891
0.00339694
0.0217276
0.00475127
0.00294914
0.0333113
0.00691743
0.00805942
0.0324255
0.0273106
0.0202113
0.0160602
0.0134218
0.0114293
0.00978354
0.00838617
0.00640744
0.00581308
0.038087
0.00722695
0.0442368
0.0287489
0.0193135
0.0143247
0.00985676
0.00835253
0.0118195
0.000151567
0.00171808
0.00136048
0.00549561
0.00303995
0.00104938
0.000773379
0.000149149
0.00285453
0.00239966
0.00195157
0.0223363
0.0118943
0.00801506
0.00973322
0.0100591
0.00501195
0.0186193
0.0111541
0.00207127
0.0166942
0.0208911
0.0486733
0.0379736
0.0418653
0.0432378
0.0397177
0.0351656
0.0410874
0.0519854
0.0474634
0.0441681
0.0489317
0.00396103
0.00106117
0.000344577
0.000656957
0.000384011
0.000209004
0.00159984
0.00266431
0.00157822
0.00715037
0.00481394
0.00334585
0.0022833
0.0537711
0.00967113
0.00682135
0.0177825
0.0140394
0.0115774
0.0256039
0.00813088
0.00537455
0.00713781
0.0120174
0.0171889
0.0056376
0.0101122
0.0244453
0.0362271
0.0320506
0.0244165
0.035676
0.0255987
0.00049148
0.00435717
0.000820825
0.00295256
0.00368391
0.00870277
0.00525599
0.0127535
0.0179956
0.00338907
0.0143207
0.00353376
0.0266108
0.0221877
0.0172857
0.0017591
0.00214912
0.00320899
0.0137797
0.00776477
0.00624354
0.0234935
0.0423736
0.0229666
0.00471207
0.00883614
0.00481764
0.00535432
0.0111396
0.0134987
0.00360201
0.00178547
0.027589
0.000379469
0.00321519
0.0225219
0.00458127
0.00303857
0.0339965
0.00988981
0.0121818
0.0327658
0.0531042
0.0534404
0.0521588
0.0498713
0.0472714
0.0443115
0.0425388
0.0425676
0.0439383
0.0462581
0.0489129
0.0512749
0.0524444
0.052315
0.0485551
0.0486123
0.0472171
0.0447618
0.0415823
0.0381645
0.0363516
0.0365272
0.0376985
0.0401174
0.0427368
0.0451385
0.0463129
0.0460891
0.0533743
0.0530566
0.0513792
0.0484816
0.0455366
0.0424483
0.0403982
0.0400941
0.0415724
0.0438574
0.0464552
0.0484239
0.0488615
0.0484682
0.0534427
0.0546268
0.0552341
0.0549582
0.0558241
0.0561373
0.056509
0.0573662
0.0576437
0.0583578
0.0594781
0.0598247
0.0603928
0.0604979
0.0520593
0.0530249
0.053059
0.0525685
0.0521454
0.0518082
0.0517206
0.0519501
0.0524045
0.0528014
0.0535129
0.0542126
0.0539672
0.0539826
0.0648526
0.0657571
0.0658574
0.0651002
0.0639397
0.0630709
0.0626321
0.0620091
0.0629064
0.0632483
0.0638515
0.0643656
0.0644921
0.0632091
0.00700677
0.00739657
0.00795947
0.00869866
0.00958723
0.0105623
0.0114339
0.0118301
0.0111757
0.00910915
0.00813549
0.0152912
0.0310352
0.00669445
0.00713769
0.00775306
0.00855434
0.00952506
0.0106053
0.0115941
0.0120787
0.0113748
0.00869776
0.00497809
0.0108432
0.0258135
0.00661041
0.00709686
0.00776498
0.00863846
0.009732
0.0110408
0.0124679
0.0137915
0.014727
0.0154004
0.0174203
0.0234871
0.0352277
0.000369063
0.000274992
0.000417021
0.000622607
0.000923144
0.00137424
0.00205589
0.00300773
0.00419027
0.00549024
0.000221315
0.000316486
0.000476062
0.000533574
0.000566302
0.000766926
0.00136419
0.00236156
0.0036439
0.00505955
0.000687815
0.000583526
0.000546007
0.000459944
0.000261038
0.000245138
0.000983341
0.00207075
0.00341553
0.00487335
0.00705178
0.00470779
0.00285302
0.00162209
0.00695699
0.00459477
0.00275229
0.00152748
0.00705377
0.00472267
0.00289963
0.00172496
0.0319223
0.0175861
0.0119977
0.0117837
0.0122507
0.0118652
0.0109732
0.00999428
0.0224019
0.00690742
0.00330145
0.00878687
0.0111002
0.0113757
0.0107148
0.00978978
0.0274401
0.0159291
0.0115992
0.0118998
0.012421
0.0119727
0.0110233
0.0100145
0
0
0
0
0
0
0
0
0
0
0
0
0
0
0
0
0
0
0
0
0
0
0
0
0
0
0
0
0
0
0
0
0
0
0
0
0
0
0
0
0
0
0
0
0
0
0
0
0
0
0
0
0
0
0
0
0
0
0
0
0
0
0
0
0
0
0.902783
0.913677
0.920193
0.921911
0.917209
0.908171
0.91206
0.913441
0.921901
0.902324
0.85007
0.760157
0.690537
0.736022
0.663486
0.817664
0.711435
0.787703
0.67491
0.885197
0.614114
0.625844
0.642094
0.661292
0.682812
0.606937
0.709375
0.877379
0.8802
0.67155
0.703904
0.642368
0.7966
0.653688
0.752089
0.733605
0.72134
0.645355
0.630842
0.661211
0.873126
0.826183
0.868984
0.773778
0.848181
0.68104
0.757121
0.821836
0.638348
0.634158
0.628927
0.618627
0.627966
0.632672
0.612767
0.623775
0.651354
0.646942
0.615634
0.622186
0.638872
0.642625
0.752269
0.851656
0.825184
0.791899
0.921513
0.883971
0.891028
0.889155
0.655712
0.786225
0.815385
0.887256
0.723993
0.686169
0.702465
0.670056
0.757218
0.668016
0.68359
0.628309
0.647609
0.701317
0.654301
0.649916
0.65891
0.621075
0.630608
0.846615
0.769709
0.73192
0.616647
0.834415
0.737562
0.696515
0.80854
0.783107
0.676514
0.662463
0.644073
0.705531
0.633268
0.646898
0.659571
0.629648
0.609896
0.867112
0.664644
0.853914
0.710578
0.763936
0.683119
0.629168
0.871381
0.881499
0.800541
0.686018
0.638259
0.706219
0.883453
0.625307
0.860013
0.737658
0.624554
0.685994
0.618885
0.849766
1.06485
1.07637
1.08222
1.08427
1.07954
1.06827
1.07408
1.07588
1.08391
1.06163
1.02399
0.950393
0.895136
0.93116
0.873949
0.997134
0.911518
0.972629
0.882904
1.05349
0.82177
0.830924
0.843475
0.858228
0.874913
0.815982
0.896047
1.04309
1.04703
0.876962
0.903431
0.845913
0.970948
0.861646
0.942824
0.919007
0.917839
0.854045
0.838389
0.860511
1.04166
1.00319
1.03487
0.960377
1.02102
0.876368
0.938459
0.992975
0.843116
0.843072
0.837718
0.828075
0.838047
0.843198
0.821967
0.833925
0.863197
0.858557
0.824929
0.831825
0.849565
0.853906
0.930868
1.01685
0.993382
0.964526
1.0844
1.05121
1.05769
1.05583
0.867812
0.971067
0.994906
1.05483
0.920821
0.890672
0.903788
0.878053
0.947541
0.864308
0.876215
0.833587
0.848708
0.890705
0.864508
0.85993
0.869268
0.82925
0.83702
1.01492
0.947668
0.916099
0.824452
1.01022
0.931332
0.898172
0.988957
0.968206
0.88203
0.860886
0.846763
0.895429
0.839592
0.856627
0.867525
0.835892
0.819022
1.03755
0.872706
1.02607
0.909743
0.952647
0.877072
0.83496
1.03517
1.04737
0.982188
0.888664
0.847266
0.896771
1.04661
0.833898
1.03141
0.93201
0.832632
0.889352
0.82689
1.02331
0.696848
0.705554
0.718193
0.735198
0.75684
0.782379
0.810115
0.83782
0.862668
0.882294
0.894051
0.748617
0.757083
0.76923
0.785511
0.806191
0.830557
0.856975
0.883286
0.906789
0.92521
0.936081
0.800281
0.808646
0.820492
0.83617
0.855992
0.879274
0.904455
0.929486
0.951785
0.969226
0.979423
0.88733
0.868756
0.843133
0.813252
0.782637
0.753774
0.729295
0.710744
0.698238
0.691589
0.689658
0.929151
0.911263
0.886714
0.85811
0.828826
0.801283
0.778013
0.760488
0.748802
0.74276
0.741228
0.972324
0.954951
0.931257
0.903747
0.87569
0.849368
0.827213
0.810617
0.799583
0.793973
0.792709
0.972641
0.97761
0.981892
0.985246
0.987438
0.988801
0.989762
0.99068
0.991788
0.993137
0.994652
1.01087
1.01609
1.02055
1.02406
1.02632
1.02769
1.02863
1.02953
1.03064
1.03204
1.03362
1.05059
1.05607
1.06077
1.06442
1.0667
1.068
1.06885
1.06967
1.07077
1.07222
1.07397
0.83813
0.86816
0.8999
0.933138
0.880018
0.90893
0.939616
0.971868
0.922948
0.950802
0.98052
1.01194
0.656665
0.663523
0.674267
0.688773
0.706784
0.728016
0.752268
0.779486
0.709106
0.71551
0.725493
0.739013
0.755833
0.775702
0.798476
0.824132
0.761186
0.767338
0.776823
0.789552
0.805336
0.823984
0.845398
0.869622
0.960087
0.925078
0.892114
0.861392
0.833084
0.807312
0.784182
0.763756
0.746312
0.732044
0.721224
0.713871
1.0002
0.966726
0.935248
0.905971
0.879089
0.854709
0.83291
0.813711
0.797337
0.783975
0.773925
0.767237
1.04176
1.00951
0.979328
0.951367
0.925796
0.902702
0.882124
0.864034
0.848609
0.83596
0.826324
0.819798
0.708878
0.704276
0.699482
0.694424
0.689391
0.684592
0.680282
0.6765
0.673303
0.670381
0.66757
0.66469
0.661634
0.658465
0.762172
0.757713
0.752801
0.747648
0.742495
0.737552
0.733116
0.729221
0.72596
0.723008
0.720183
0.717301
0.714257
0.710989
0.814959
0.810281
0.805384
0.80021
0.795034
0.790089
0.785602
0.78166
0.778314
0.775294
0.772418
0.769491
0.766399
0.763217
0.759985
0.763096
0.766464
0.769843
0.773326
0.776833
0.780482
0.784249
0.788163
0.792198
0.796264
0.800431
0.8047
0.809283
0.70757
0.710671
0.713984
0.717369
0.720793
0.724276
0.727867
0.731547
0.735328
0.739185
0.743117
0.747102
0.751255
0.755842
0.655346
0.658571
0.661843
0.665189
0.668554
0.671912
0.675421
0.679025
0.682717
0.686505
0.690222
0.694155
0.698228
0.702639
1.75433
1.80725
1.85684
1.90119
1.9386
1.96763
1.98716
1.75703
1.80987
1.85939
1.90369
1.94106
1.97007
1.98959
1.76146
1.81417
1.86359
1.9078
1.9451
1.97406
1.99355
1.76761
1.82015
1.86941
1.9135
1.9507
1.97959
1.99904
1.55798
1.55099
1.54595
1.54289
1.60989
1.60313
1.59826
1.5953
1.66184
1.65529
1.65058
1.64771
1.51021
1.51431
1.51841
1.52252
1.50298
1.50708
1.51119
1.51529
1.49776
1.50186
1.50596
1.51006
1.49457
1.49867
1.50276
1.50685
1.47025
1.41393
1.35767
1.30148
1.24539
1.46274
1.40612
1.34954
1.29299
1.23651
1.4573
1.40046
1.34364
1.28684
1.23006
1.45395
1.39697
1.34
1.28304
1.2261
1.1854
1.18149
1.17764
1.17382
1.1761
1.1722
1.16836
1.16454
1.16936
1.16546
1.16162
1.15781
1.16521
1.16132
1.15749
1.15369
1.56479
1.67619
1.73086
1.77536
1.88223
1.81562
1.91312
1.94056
1.85675
1.94393
1.11357
0.875503
0.879208
0.883058
1.95795
1.96199
1.10307
1.10778
0.868393
0.869759
0.872291
0.895285
0.900707
0.912138
1.95384
1.96605
1.97005
1.97632
1.98043
1.94934
1.11698
1.55574
1.44763
1.28044
1.61481
1.22471
1.1133
1.00295
1.16899
1.33617
1.3919
1.50336
1.55909
1.72628
1.78204
1.89338
1.05794
1.67055
1.83798
1.31372
0.905954
0.9547
1.01073
1.25511
1.37082
1.43057
1.195
1.49753
1.89145
1.85868
1.77068
1.70785
1.89804
1.62122
0.887041
0.865002
0.907347
1.97365
1.06163
1.91211
0.926047
0.891116
1.55841
1.55337
0.947845
1.92018
1.90804
0.930761
1.91612
0.91933
0.922032
0.919557
1.90348
1.0639
1.55611
1.12717
1.75072
1.58338
1.30471
1.41618
1.47192
1.24897
1.94069
1.19323
1.1375
1.36044
1.08159
1.02591
1.52765
1.63911
1.86356
1.69488
1.80728
1.40393
0.924529
0.988031
1.34602
1.28754
1.22803
1.46203
1.84673
1.92386
1.85267
1.65069
1.01563
1.59755
1.92408
0.937044
0.979638
1.86618
0.967875
1.86994
0.971288
0.96705
1.86216
0.941435
1.92708
0.934143
0.95465
1.60278
1.85774
1.04961
0.965516
1.27322
1.38472
1.32897
1.6634
1.44047
1.60769
1.21744
1.49622
1.55196
1.71902
1.83277
1.16158
1.77362
1.10476
1.0483
1.06124
1.60582
1.16722
1.32063
1.37873
0.972105
1.43715
1.26293
1.59333
1.8021
1.67905
1.83832
1.8074
1.65195
0.985218
0.987927
1.87875
1.81877
1.00766
1.02247
1.87403
1.81534
0.993974
1.00809
1.05798
1.01739
0.984086
1.81174
1.00048
1.88521
1.78988
1.57631
1.632
1.35146
1.29614
1.52056
1.40703
1.46384
1.7425
1.07082
1.12848
1.24107
1.18551
1.68766
1.5415
1.07162
1.65454
1.60841
1.20518
1.49579
1.3562
1.41464
1.29991
0.956029
1.75614
1.79761
1.62183
1.76088
1.04104
1.03466
1.03417
1.03903
1.04102
1.8224
1.76799
1.7659
1.70318
1.65763
1.60023
1.54376
1.48633
1.77074
1.65637
1.31669
1.37208
1.092
1.26164
1.42872
1.7111
1.15243
1.20628
1.55726
1.47335
1.51422
1.24337
1.39304
1.33662
1.14661
1.70949
1.75266
1.83026
1.71543
1.07345
1.08177
1.10704
1.82809
1.77018
1.70561
1.72632
1.56702
1.62414
1.50896
1.68021
1.72901
1.45084
1.28043
1.17019
1.22467
1.61195
1.66206
1.55988
1.5328
1.18599
1.08811
1.79821
1.67042
1.59136
1.64913
1.71332
1.1246
1.12419
1.74891
1.61655
1.73487
1.01388
1.70359
2.04529
2.04118
2.03707
2.03296
2.02885
2.02475
2.02064
2.01653
2.01242
2.03979
2.03569
2.03158
2.02747
2.02337
2.01926
2.01516
2.01105
2.00695
2.03579
2.03169
2.02758
2.02348
2.01938
2.01528
2.01118
2.00708
2.00298
2.03328
2.02919
2.0251
2.021
2.01691
2.01282
2.00873
2.00464
2.00054
1.96071
1.8752
1.93299
1.74865
1.84319
1.57944
1.96953
1.75265
1.69824
1.05135
1.86183
1.80716
1.56397
1.57142
1.57617
1.69684
1.64397
1.80097
1.90041
1.9641
1.97398
1.97818
1.9823
1.98641
1.99048
1.99419
1.99691
2.00115
1.64386
1.51462
1.58954
1.45664
1.53527
1.39995
1.48108
1.34322
1.42697
1.28551
1.37294
1.22117
1.31901
1.2652
1.21152
1.15797
1.10459
0.998275
0.945318
0.892425
0.839636
0.787
0.734605
0.682626
0.631339
0.581116
0.53213
0.485286
0.440605
0.399198
0.360704
0.326826
0.297643
0.274187
0.257486
0.247584
0.244927
0.242133
0.243092
0.243861
0.244637
0.245369
0.245955
0.246234
0.99895
0.9465
0.894157
0.842041
0.790237
0.738856
0.688053
0.637963
0.588865
0.541147
0.495085
0.451156
0.409729
0.371177
0.335967
0.304972
0.278846
0.258383
0.243257
0.235495
0.235116
1.15245
1.14698
1.14159
1.1378
1.91299
1.83693
1.87925
1.77518
1.72375
1.91952
1.58827
1.67323
0.241382
0.248742
1.05113
1.91592
1.93288
1.55884
0.268988
0.34304
1.02119
1.6208
1.5046
1.23476
1.18114
0.264346
0.392691
0.238763
1.94514
1.94828
0.9682
0.862582
0.871143
0.71629
0.665874
0.567863
0.52095
0.24101
0.242214
0.244238
0.923587
0.757663
0.70572
0.603768
0.554619
0.507054
0.461633
0.976234
1.61314
0.37889
0.239283
0.239867
0.240558
1.617
1.93699
1.7218
1.94115
1.92873
1.77603
1.83086
1.66748
1.45044
1.39637
1.34238
1.28851
1.07436
1.12767
0.819132
0.76749
0.616319
0.475725
0.311283
0.240151
0.242936
0.355504
0.284685
0.251136
0.243686
0.244719
0.91533
0.810003
0.654371
0.432888
0.418788
0.322137
0.29311
0.250841
0.23875
1.09541
1.09574
1.9244
1.62679
1.10073
1.16088
1.57759
1.31796
1.43256
1.37519
1.26141
1.49082
1.8703
1.7488
0.235203
1.70088
1.08601
1.87507
1.04475
1.67671
0.239263
0.991084
0.376265
0.256428
0.282154
0.243399
0.359807
0.26013
0.415152
0.482403
0.24517
1.69103
0.296954
0.244687
0.246924
0.326044
0.397274
0.23735
0.245831
0.273292
0.236342
0.438502
0.456782
0.248752
0.340723
0.30922
0.50094
0.528651
0.547121
0.576842
0.594832
0.626383
0.643922
0.693893
0.677096
0.74475
0.728462
1.36503
0.796257
1.41886
1.04415
0.780452
1.88755
1.4732
0.848289
1.15078
1.09739
1.90062
1.20432
1.5278
0.93816
1.74492
1.31135
1.63674
1.89597
0.901018
0.83278
1.25789
1.88346
1.8916
1.58232
0.885361
1.79814
0.238414
0.954225
1.88616
1.94542
1.0285
1.8793
1.10834
1.62998
1.55038
1.35011
1.40895
1.46771
1.29179
1.72566
1.82618
1.79294
1.82983
0.9327
1.66027
0.803153
1.22745
0.855512
1.60562
0.87841
1.84539
1.85119
1.0671
1.01394
0.825492
0.751135
0.773454
0.69964
1.17371
0.722151
0.648792
0.671644
0.598884
0.622031
0.573518
0.247559
0.23795
0.242651
0.55019
0.526458
1.85542
0.503234
0.481157
0.458288
0.438064
0.397536
0.415862
0.360169
0.376473
0.340944
0.326139
0.309639
0.296575
0.282668
0.271513
0.262862
0.253022
0.25513
0.254781
0.240285
0.25359
0.252707
1.12028
0.240872
0.24167
1.38605
1.44011
1.28072
1.49518
1.55034
0.908137
0.960946
1.71435
1.76752
1.33328
1.8415
1.83754
1.90717
1.007
1.83365
1.05837
1.05229
1.67873
1.1152
1.6365
1.96226
1.2376
1.52796
1.38655
1.44532
1.32351
1.78009
1.82855
1.8234
1.78376
0.90877
0.854649
1.62874
0.825781
1.79529
0.773707
1.19637
1.2514
1.81351
0.722056
0.878211
0.802237
1.08942
0.750614
0.699666
1.57278
0.67108
1.14227
0.620916
0.649606
0.571857
0.600397
0.552502
0.524293
0.251581
0.506248
0.478609
0.461941
0.43511
0.419911
0.380725
0.247705
0.394427
0.356958
0.323213
0.345004
0.285941
0.262306
0.313046
0.294653
0.270196
0.268011
0.267808
0.24923
0.250484
1.79455
1.65771
1.46055
0.930878
1.03643
1.30412
1.40552
0.983591
1.68373
1.51651
1.35395
1.73743
1.79022
0.986863
1.78735
1.01523
1.06469
1.16897
1.68256
1.26144
1.21419
1.50392
1.42474
1.36998
0.968367
1.73346
1.77689
1.86289
1.73776
0.881964
0.829316
0.79688
0.848982
0.745473
1.59628
0.777567
1.16213
1.22024
0.901368
1.10984
1.75481
0.694487
0.726513
0.676029
0.644132
1.28104
0.594694
0.626313
0.546547
0.577698
0.530526
0.500076
0.485095
0.266062
0.455338
0.441918
0.401669
0.364575
0.412679
0.336843
0.372971
0.305872
0.330442
0.278234
0.300251
0.286937
0.264852
1.65314
1.05795
0.953628
1.53887
1.48163
1.00578
1.70791
1.73848
1.74142
1.01799
1.1207
1.72979
1.06875
1.68782
1.18174
1.21515
1.56378
0.284089
1.77475
0.853939
0.801966
0.82186
0.770806
0.873821
0.750856
0.72002
1.12741
0.700334
0.669641
1.62361
0.650317
0.619878
0.925458
0.571193
0.601166
0.553282
0.524031
0.506952
0.478042
0.462708
0.432841
0.422288
0.289358
0.263365
0.385871
0.390038
0.350454
0.352139
0.316199
0.316225
0.285265
0.280498
1.07833
0.976731
1.02778
0.935716
1.70176
1.72708
1.02002
1.64441
1.07152
1.59499
1.69475
1.65652
0.302488
0.825116
0.77401
0.797513
0.848988
0.746876
0.723434
0.900448
0.696366
1.09797
0.67327
0.646396
0.623608
0.597237
0.57509
0.549296
0.527914
0.502609
0.482231
0.456482
0.438846
0.40815
0.405402
0.374311
0.365351
0.336024
0.950417
0.907199
0.999597
1.02114
0.315272
0.929
1.68022
0.966696
1.14051
1.60076
0.877338
0.973314
0.336402
1.3265
0.246215
1.04933
1.1745
0.981711
0.107602
0.108255
0.108041
0.107745
0.10701
0.106765
0.106181
0.106134
0.106454
0.106785
0.107707
0.107972
0.107779
0.107093
0.143242
0.143347
0.142963
0.142402
0.142195
0.141552
0.141131
0.141004
0.140821
0.140802
0.140783
0.141155
0.141149
0.140728
0.17964
0.179728
0.179618
0.179343
0.178575
0.178003
0.177479
0.177108
0.176761
0.176643
0.176324
0.176299
0.175767
0.175303
0.217068
0.217149
0.21675
0.216299
0.215506
0.214753
0.2142
0.213709
0.212985
0.212291
0.211793
0.211506
0.210962
0.210303
1.09354
1.09823
1.10565
1.11575
1.03722
1.0425
1.05066
1.06162
0.980962
0.986852
0.995777
1.00766
0.924826
0.931318
0.941028
0.953857
0.868912
0.875904
0.88638
0.90022
0.813254
0.820607
0.831835
0.84673
0.760808
0.76787
0.779158
0.7943
0.708132
0.715081
0.72648
0.742054
0.65542
0.662375
0.674044
0.69011
0.602669
0.609842
0.621996
0.638693
0.547175
0.555667
0.569083
0.587361
0.492502
0.502111
0.517055
0.537061
0.439067
0.449856
0.46643
0.48819
0.386887
0.398992
0.417383
0.441217
0.336318
0.350153
0.370517
0.396444
0.287473
0.303343
0.326113
0.354338
0.240963
0.259386
0.284885
0.315568
0.197284
0.218985
0.247796
0.280968
0.157256
0.183269
0.215465
0.251281
0.122383
0.153504
0.189495
0.227418
0.0958321
0.132045
0.17076
0.210391
0.0824306
0.120485
0.160339
0.200104
0.080745
0.11823
0.157436
0.196521
0.088635
0.124559
0.161999
0.199763
0.0903824
0.128726
0.168208
0.207984
0.0853732
0.124811
0.165532
0.206325
0.0907764
0.129889
0.170778
0.211829
0.107719
0.144829
0.18427
0.224693
0.139049
0.170471
0.206244
0.24506
0.177736
0.203886
0.235996
0.27218
0.221574
0.243433
0.271901
0.30541
0.268902
0.287642
0.312971
0.343624
0.319127
0.335205
0.357829
0.386204
0.371589
0.385677
0.406046
0.432035
0.425924
0.438345
0.456681
0.480286
0.481725
0.492664
0.509106
0.530862
0.538807
0.548499
0.563242
0.582993
0.597021
0.605334
0.618411
0.636377
0.655943
0.662334
0.673984
0.69032
0.710583
0.716862
0.728094
0.743804
0.764633
0.771136
0.782186
0.797395
0.818354
0.825143
0.836094
0.850955
0.871499
0.878707
0.889792
0.904419
0.92656
0.933853
0.94452
0.958394
0.981805
0.988947
0.999154
1.01233
1.03722
1.04406
1.05378
1.06631
1.09271
1.09921
1.10845
1.12036
1.14824
1.15441
1.16319
1.17451
1.20377
1.20962
1.21797
1.22876
1.25931
1.26487
1.27281
1.2831
1.31486
1.32013
1.3277
1.33752
1.37041
1.37542
1.38263
1.39201
1.42596
1.43072
1.4376
1.44656
1.48153
1.48604
1.4926
1.50118
1.5371
1.54138
1.54764
1.55584
1.59267
1.59673
1.6027
1.61055
1.64825
1.6521
1.65778
1.6653
1.70383
1.70747
1.71289
1.72008
1.75941
1.76285
1.76802
1.7749
1.815
1.81825
1.82317
1.82975
1.87059
1.87365
1.87833
1.88463
1.92618
1.92905
1.93351
1.93953
1.98178
1.98447
1.9887
1.99445
0.117552
0.161594
0.209071
0.258626
0.31044
0.363797
0.418814
0.47495
0.532167
0.590326
0.117196
0.161458
0.209039
0.258074
0.309846
0.362665
0.417319
0.472878
0.52962
0.587133
0.117346
0.161454
0.208455
0.257542
0.308702
0.361417
0.415528
0.47075
0.526982
0.583982
0.116467
0.160652
0.207705
0.256427
0.307323
0.359754
0.413509
0.468307
0.524072
0.580652
0.115438
0.159845
0.206679
0.255201
0.305711
0.357883
0.411288
0.465756
0.521138
0.577353
0.114794
0.158804
0.205364
0.253786
0.304046
0.355818
0.408979
0.46308
0.518056
0.573997
0.11365
0.157711
0.203875
0.252037
0.302125
0.353622
0.406463
0.460337
0.515142
0.570582
0.11207
0.156253
0.202135
0.250352
0.299982
0.351496
0.403868
0.457512
0.512118
0.567361
0.111699
0.154969
0.200503
0.248541
0.29786
0.348933
0.401211
0.454733
0.509063
0.564074
0.110695
0.153399
0.198933
0.246259
0.295441
0.346233
0.398488
0.451822
0.505927
0.560846
0.109277
0.151689
0.196712
0.243942
0.292891
0.343525
0.395547
0.448667
0.502735
0.557622
0.108154
0.149589
0.194213
0.241362
0.290112
0.340619
0.392332
0.445395
0.499474
0.554398
0.105973
0.147156
0.191502
0.238363
0.286938
0.3373
0.389022
0.441941
0.496043
0.551012
0.103456
0.144415
0.18841
0.23496
0.283469
0.333705
0.385417
0.438357
0.492489
0.54751
0.00846643
0.00696586
0.00883711
0.00971803
0.00957262
0.0088757
0.00795581
0.00641283
0.00596681
0.0174586
0.00705098
0.0310973
0.0173889
0.0105842
0.0094306
0.00883184
0.00768324
0.00965549
0.000163177
0.00138121
0.000682281
0.00291887
0.00213923
0.00100469
0.000268395
0.000317886
0.00203737
0.00154726
0.00131186
0.00958725
0.0039312
0.00312487
0.00330463
0.00481911
0.00320572
0.00708632
0.0045553
0.00127289
0.00634758
0.0089109
0.0331724
0.0210987
0.0247669
0.0257939
0.0232499
0.0199927
0.0249681
0.0314432
0.0282594
0.0280546
0.0324487
0.00427995
0.000381256
0.000798666
0.00014003
0.000300097
0.000510441
0.00196108
0.00299859
0.000879184
0.00649145
0.00408542
0.00263117
0.00156744
0.0324375
0.00753653
0.00618761
0.00579576
0.00707883
0.00769116
0.00857806
0.00697404
0.0050124
0.00592604
0.00758389
0.00906574
0.00485362
0.00780402
0.0103246
0.0172761
0.0149077
0.0123797
0.0216686
0.013609
0.000564745
0.00445404
0.00125242
0.00299111
0.0028805
0.00407523
0.00438844
0.00501096
0.00555076
0.00292535
0.00727759
0.00260275
0.0153647
0.0115753
0.00578172
0.00178037
0.00142633
0.00298889
0.00459249
0.00529317
0.00480613
0.0126594
0.0283508
0.00798805
0.00390064
0.00571481
0.00470753
0.00566392
0.00404278
0.00448024
0.00227662
0.00126293
0.0144491
7.02984e-05
0.00258889
0.0108057
0.00396413
0.00227662
0.0204781
0.00571681
0.00587325
0.0198787
0.00469599
0.00608034
0.00900572
0.0100081
0.00978121
0.00895268
0.00789827
0.00615747
0.00564781
0.0133754
0.0068806
0.0253768
0.0088584
0.00110057
0.00623277
0.00838843
0.00748852
0.00853994
0.00017081
0.00108875
0.000525433
0.00302054
0.00220022
0.000597754
0.000142559
0.000182713
0.00199653
0.00147425
0.00128289
0.00652034
0.00224357
0.00260392
0.00171091
0.00100855
0.0021868
0.00380209
0.000832961
0.00114453
0.00418808
0.00643975
0.0299693
0.0180927
0.0224453
0.0240172
0.0213577
0.0177569
0.0227193
0.0290374
0.0257552
0.0254757
0.0296966
0.00382205
0.000251195
0.000412341
0.000210657
0.00033634
0.000369304
0.00140292
0.00247543
0.000726524
0.00634377
0.00394437
0.00249552
0.00142499
0.029499
0.00773958
0.00612364
0.00455503
0.00715492
0.00794773
0.00488491
0.00705205
0.00480085
0.00538139
0.00463483
0.000623452
0.00466913
0.00656514
0.00638862
0.0136623
0.0112277
0.00856928
0.0175485
0.00887847
0.000250903
0.00406762
0.000713835
0.00255704
0.00271184
0.00396513
0.00434626
0.00453422
0.00309302
0.00266403
0.000653311
0.00235391
0.0082373
0.00610213
0.0025557
0.00132258
0.00124902
0.00263164
0.00306398
0.00546216
0.00488766
0.00650723
0.0239646
0.00436678
0.00373871
0.00377619
0.00439616
0.00528514
0.00145524
0.00170602
0.00245051
0.00111171
0.0116836
0.000114796
0.00245485
0.00760126
0.0038357
0.00211759
0.0156507
0.00587482
0.00587054
0.0145635
0.0165408
0.0133095
0.0124493
0.0117088
0.0106246
0.00935161
0.00806987
0.00614446
0.00558335
0.024195
0.00693781
0.029561
0.0167608
0.0103705
0.00949485
0.00890514
0.0077188
0.00977213
0.000159159
0.00107779
0.000771686
0.0041723
0.00232032
0.000528522
0.000402624
8.16555e-05
0.00204779
0.00157249
0.00126633
0.0116522
0.00456921
0.0053331
0.00579959
0.00554668
0.0033492
0.00973885
0.00550999
0.00131442
0.00714722
0.010042
0.032917
0.0244411
0.0259394
0.025701
0.0229593
0.0201673
0.0249236
0.0349928
0.0315645
0.0281465
0.0321117
0.00368947
0.000616814
3.05918e-05
0.000422484
0.000354916
0.00024779
0.0012161
0.00232214
0.00102648
0.00650869
0.00411219
0.00268261
0.00165921
0.0362244
0.00867797
0.00633673
0.0114939
0.0105701
0.00973943
0.0155807
0.00751807
0.00488463
0.00599231
0.00776143
0.00937344
0.00488035
0.00792408
0.0149328
0.0233383
0.0204022
0.0137096
0.022934
0.0152768
0.00012703
0.00400888
0.000461466
0.00250018
0.00291608
0.00636225
0.00461773
0.00878576
0.0111223
0.00274667
0.00796313
0.0026206
0.0158565
0.0129818
0.0103923
0.00127235
0.00149207
0.00265643
0.00878191
0.00655646
0.00544128
0.0137519
0.0285725
0.013964
0.00392554
0.00594091
0.00440078
0.00516865
0.00488047
0.00728136
0.00283039
0.00109793
0.015776
0.000234603
0.00256434
0.0118273
0.00397837
0.00232699
0.0218608
0.00786859
0.009041
0.0209535
0.940999
0.952243
0.958732
0.960564
0.955772
0.945881
0.950178
0.951775
0.960453
0.939876
0.89205
0.806761
0.741323
0.78405
0.716182
0.861199
0.760895
0.832782
0.726712
0.925587
0.666074
0.676875
0.691977
0.709842
0.729929
0.659892
0.754907
0.916621
0.919862
0.722396
0.752942
0.692766
0.838813
0.705499
0.798806
0.778845
0.769564
0.697538
0.682842
0.710294
0.913536
0.869202
0.908451
0.81941
0.88996
0.728957
0.801281
0.86311
0.689203
0.686647
0.681392
0.671607
0.680941
0.685866
0.66588
0.676903
0.705739
0.701112
0.668691
0.67508
0.692064
0.69644
0.79554
0.891161
0.865591
0.833554
0.960258
0.924082
0.931008
0.929142
0.709918
0.831302
0.858977
0.927481
0.772432
0.736836
0.752219
0.721798
0.803832
0.71633
0.730842
0.679355
0.697334
0.747622
0.707007
0.702553
0.711633
0.67326
0.682045
0.886943
0.812887
0.776776
0.668678
0.877032
0.785103
0.746277
0.852435
0.82829
0.727421
0.711342
0.694221
0.751968
0.684739
0.699459
0.711296
0.680998
0.663018
0.908182
0.716391
0.895521
0.759648
0.8101
0.730709
0.680359
0.910384
0.920756
0.844858
0.735975
0.690711
0.752824
0.92216
0.677692
0.901379
0.785419
0.676679
0.736227
0.671002
0.891695
0.980759
0.992228
0.998613
1.00053
0.995708
0.985173
0.989913
0.99165
1.00034
0.979
0.935103
0.85407
0.792376
0.832632
0.768984
0.905709
0.810764
0.878711
0.778685
0.967125
0.71809
0.728109
0.742214
0.758909
0.777731
0.712507
0.8013
0.957368
0.960921
0.773645
0.802647
0.743535
0.882021
0.757496
0.846259
0.8249
0.818493
0.749774
0.734803
0.759924
0.955127
0.913113
0.949278
0.865816
0.932743
0.777554
0.84629
0.905451
0.74033
0.738998
0.733708
0.724187
0.733632
0.73875
0.718522
0.729616
0.759458
0.754677
0.721303
0.727662
0.745057
0.749774
0.839839
0.93193
0.907182
0.87631
1.00033
0.96536
0.972138
0.970279
0.763636
0.877222
0.903518
0.968848
0.82145
0.787853
0.802403
0.773786
0.85117
0.765212
0.778773
0.730627
0.74747
0.79471
0.759802
0.755254
0.764468
0.725416
0.733633
0.92848
0.857032
0.822516
0.720748
0.920622
0.833327
0.796531
0.89723
0.874291
0.778701
0.760761
0.744758
0.799174
0.736331
0.752046
0.763279
0.732528
0.71568
0.950342
0.768406
0.938138
0.809262
0.85703
0.778965
0.731764
0.950712
0.961523
0.88999
0.786484
0.743071
0.800195
0.962277
0.729956
0.943799
0.8338
0.728781
0.786927
0.723124
0.934669
1.02208
1.03364
1.03982
1.04182
1.03701
1.02601
1.03123
1.03305
1.04153
1.0196
0.979125
0.901978
0.843661
0.8817
0.82141
0.951054
0.860999
0.925358
0.830722
1.00982
0.769903
0.779449
0.792736
0.808409
0.826102
0.764426
0.848387
0.999568
1.00335
0.82515
0.852811
0.79456
0.926138
0.80949
0.89431
0.871653
0.867929
0.801884
0.786615
0.809988
0.997897
0.957847
0.991464
0.912869
0.976516
0.826684
0.892067
0.948817
0.791599
0.791095
0.785778
0.776304
0.78596
0.79112
0.770463
0.781978
0.811636
0.806896
0.773323
0.779879
0.797403
0.802075
0.884993
0.973884
0.949833
0.920023
1.04177
1.0078
1.01443
1.01258
0.815927
0.92385
0.948872
1.01136
0.870937
0.839142
0.852946
0.825827
0.899108
0.814564
0.827267
0.782009
0.797939
0.842439
0.812122
0.807564
0.816824
0.777309
0.785242
0.971208
0.902017
0.868994
0.77256
0.965078
0.882097
0.847179
0.942789
0.920976
0.830234
0.810621
0.795596
0.847017
0.787909
0.804321
0.815299
0.784111
0.767572
0.99353
0.820454
0.981724
0.859317
0.90459
0.827775
0.783254
0.992367
1.00375
0.935841
0.837374
0.795203
0.848184
1.00381
0.781966
0.987206
0.882693
0.780688
0.837977
0.77497
0.978594
1.35506
1.29696
1.33683
1.31119
1.35615
1.34547
1.02821
1.04217
1.01541
1.06634
0.98816
1.03353
0.989374
1.03169
1.07579
1.29644
1.25055
1.05339
0.939362
0.937126
0.975985
0.925506
0.928494
0.958674
0.957446
1.01296
1.88985
1.92484
1.87987
1.91229
1.86238
1.89598
1.85869
1.91161
1.934
1.90117
1.73593
1.73043
1.76623
1.7144
1.74426
1.73104
1.78051
1.7387
1.76592
1.71966
1.70602
1.68724
1.73576
1.78139
0.240883
0.215801
0.200806
0.255155
0.281999
0.236028
0.266625
0.220613
0.258217
0.217698
1.12344
1.09832
1.10831
1.15845
1.17261
1.18365
1.10983
1.08549
0.52768
1.15721
1.14212
0.160289
0.146532
0.130294
0.187212
0.173395
0.124769
0.179438
0.163806
1.66926
1.71775
1.68346
1.66631
1.7046
1.65664
1.67218
1.63843
1.69278
1.69191
1.03615
1.10495
1.05275
1.61953
1.95091
1.9344
1.92256
1.96072
1.95368
1.87974
1.90649
1.93117
1.95935
1.87793
1.8465
1.8521
1.83454
1.83841
1.89125
0.859944
0.893028
0.878959
0.852388
0.922514
0.946685
0.953479
0.854176
0.898797
0.913154
0.883791
0.90841
0.537378
0.574208
0.903546
0.92949
1.80212
1.8342
1.84784
1.79747
1.86075
1.83293
1.80007
1.77476
1.37343
1.38051
1.42213
1.4252
1.40627
1.38005
1.3851
0.337993
0.297733
0.29592
1.37538
1.32883
1.32653
0.633071
0.657791
0.681516
0.677347
0.599814
0.589043
0.595655
0.666853
0.614742
0.623927
0.685234
0.647474
0.661722
0.575476
0.52803
0.589489
0.53632
0.701062
0.667792
0.188432
0.164933
0.144385
0.163062
0.217711
0.193546
0.186187
0.211562
0.222196
0.192153
0.195298
0.154112
1.06747
1.12205
1.05904
1.00557
1.12415
1.02027
1.09284
0.974558
0.965523
0.986644
1.02129
0.99692
0.97095
1.11597
1.40689
1.34487
1.40553
1.36252
0.468871
0.436265
0.487878
0.440549
1.37541
1.46604
1.4546
1.40478
1.43774
1.3831
1.55555
1.5374
1.60555
1.5832
1.57628
1.5807
1.61564
1.37998
1.33717
1.37877
1.39968
1.40143
1.34252
1.38665
1.34282
1.43473
1.43107
1.41412
1.11716
1.04806
1.08604
1.11573
1.11517
1.17887
1.06827
1.10695
1.10406
1.82423
1.79938
1.75509
1.7716
1.87873
1.82558
1.84366
1.799
1.79814
1.79502
1.83255
1.84888
1.82437
1.89069
1.89486
1.87995
1.82307
1.86545
1.89517
1.85999
0.656752
0.696376
0.662142
0.629246
0.622731
0.673631
0.683298
0.710098
1.8555
1.89101
1.84048
1.91604
1.89056
1.85444
1.8495
1.67514
1.62552
1.63887
1.65195
1.6752
1.64742
1.61915
1.95556
1.96223
1.8864
1.93885
1.95763
1.95958
1.93129
1.63162
1.66585
1.67234
1.59416
1.66747
1.68182
1.64041
1.67646
0.469885
1.65759
1.59055
1.5976
1.66804
1.63048
0.509642
0.55319
0.518755
0.512257
1.56072
1.56045
1.83661
1.88147
1.80849
1.84504
1.18375
1.10839
1.15265
1.12048
0.660017
0.699699
0.693777
0.706784
0.666152
0.639685
0.663444
0.652427
0.606548
0.62419
0.128287
0.154614
0.131175
0.117564
0.14273
0.105344
0.139211
0.132655
0.0803727
0.133313
0.129769
0.168171
0.173946
0.172173
0.209045
0.183269
0.119377
0.160735
0.159865
0.104092
0.159902
0.107734
0.139423
0.184681
1.11418
1.06728
1.11934
1.12895
1.08459
0.207594
0.214105
0.228676
1.10575
1.12457
1.98779
1.98617
1.91434
1.92017
1.98752
1.91749
1.99351
1.87662
0.142537
0.151542
0.109076
0.125857
0.166839
0.135806
0.179426
0.16324
0.16146
0.463488
0.491277
0.913156
0.955761
0.947001
0.901464
0.928382
0.932454
0.108409
0.153673
0.150067
0.141533
0.897214
0.889032
0.848382
0.887227
0.894779
0.855005
0.837259
1.25157
1.31608
1.32788
1.27966
1.30381
1.23147
1.25516
0.447055
0.486096
0.424213
0.479757
1.19695
1.21194
1.85843
1.81173
1.87728
1.86099
1.8455
1.81203
1.81515
1.88
1.85794
0.160699
0.174471
0.133732
0.582903
0.556425
0.517847
0.563817
0.569422
0.542834
0.525498
0.554828
0.498509
0.545467
0.59161
0.602216
0.142229
0.146318
0.0779883
0.128425
0.108632
0.0971722
0.0905745
0.119006
0.0992027
0.73626
0.694864
1.51246
1.54457
1.55683
1.53653
1.59438
1.55304
1.60881
1.62478
1.66832
1.59202
1.63766
1.59762
1.62605
1.51962
1.52917
1.56338
1.5112
1.5549
1.58032
1.53019
1.52891
0.559266
0.589548
0.558818
0.506301
0.484542
0.594869
0.550514
1.33903
1.38046
1.35474
1.31925
1.38061
0.72756
0.74478
0.759981
0.757608
0.786578
0.796686
0.757904
1.30967
0.605501
0.582066
0.565793
1.29318
1.30193
0.474594
0.212298
0.963594
0.938473
0.910336
0.917957
0.893006
0.668473
1.54926
0.854991
0.852633
0.853049
0.834094
0.881291
0.870563
1.77727
1.8092
1.83131
1.77368
1.78984
1.8137
1.85302
1.61578
1.65983
1.68685
1.62276
1.57731
1.58119
1.54989
1.59697
0.180878
0.215552
0.177474
0.189817
0.189467
0.217574
0.190287
0.154268
0.16749
0.12059
0.150569
0.176523
0.206811
0.171861
1.19101
1.18686
1.16656
1.22092
1.2142
1.25108
1.21644
1.24184
0.857272
0.811616
0.854132
0.88026
0.577971
0.533285
0.575847
0.865462
0.864479
0.827666
0.81427
0.804286
0.789857
0.787605
0.807428
0.902117
0.873794
0.881102
0.924632
0.9245
0.874759
0.934745
0.950187
0.939033
0.853359
0.8602
0.875747
0.957251
0.979589
0.531164
0.595444
0.95187
0.883934
0.909058
0.904879
0.99149
0.992691
0.990188
0.928099
0.695358
0.626487
0.643917
0.640501
0.693594
0.745004
0.471525
0.927859
0.494559
0.49036
0.446747
0.448342
0.467447
0.303474
0.253985
0.289753
0.741251
0.763033
0.811206
0.796327
0.728441
0.701114
0.804417
0.827911
1.0467
1.10077
1.08375
1.02267
1.05628
1.04605
1.11801
1.14805
1.17846
1.14907
0.142581
0.798395
0.766048
0.750476
0.784563
0.791523
0.817402
0.830788
0.815554
0.765898
0.840584
0.820585
0.986017
0.941832
0.935855
1.02356
0.981782
0.973725
1.00946
1.72175
1.73146
1.71016
1.75569
0.63179
1.71105
1.69393
1.73544
0.720209
0.721904
0.6771
0.575773
0.50815
0.54091
0.511455
0.515462
0.512892
0.543702
1.71128
0.932547
0.957993
0.953576
0.880719
0.893423
0.913429
0.899039
0.136801
0.172635
0.896951
0.928511
0.939727
0.962673
0.977068
0.96106
0.780822
1.91863
1.88071
1.87862
1.86512
1.91716
1.8937
1.93604
1.97419
1.97171
1.963
1.93047
1.90858
1.95418
1.91223
1.45094
1.48016
1.4206
1.44682
1.47287
1.44701
1.4644
1.50569
1.46149
1.39831
0.839653
0.822592
0.182574
0.136432
0.158035
0.179177
0.816184
0.888108
1.71273
1.77112
1.96071
1.99913
1.9699
1.98964
1.91463
2.00004
0.205982
1.83936
1.88314
1.84852
1.88782
1.87926
1.87646
1.82648
1.81868
1.77833
1.79151
1.73977
1.77479
1.76355
1.74923
1.7878
1.76067
1.65255
1.60604
1.80934
1.68719
1.83619
1.82165
1.78049
1.84293
0.243842
0.268699
0.262593
0.227226
1.78368
0.669104
0.662003
0.613462
0.619536
0.706536
1.48909
1.43883
1.46899
1.41337
0.347685
0.32966
0.308842
0.343367
0.314593
0.35902
0.320714
0.358917
0.381424
0.353185
0.26012
0.225698
0.221093
0.221061
0.293323
0.289016
0.253019
0.257022
0.312585
0.329873
0.267207
0.427244
0.352855
0.359748
0.415776
0.336069
0.386283
0.387642
0.457056
0.477404
0.444059
0.435124
0.210289
0.0981446
0.168614
0.135124
0.125284
0.21089
0.18999
0.216867
0.394361
0.373916
0.396473
0.351361
0.315074
0.412712
0.408309
1.00326
0.983012
0.935286
0.968787
0.944316
0.168886
0.944743
0.980232
0.255113
0.19923
0.244542
0.213118
0.223755
0.21604
0.179342
0.147754
0.190854
0.250736
0.267185
0.27834
0.301402
1.36318
1.35689
1.38626
1.44508
1.42704
1.46067
1.42963
0.514112
0.451254
0.466066
0.47084
0.434862
1.70801
1.74491
1.71181
1.6787
1.72403
1.73862
0.378803
1.72233
1.71471
0.352887
0.316416
1.25107
1.28197
1.23235
1.29163
1.29693
1.21967
1.23656
1.24893
1.28661
0.421228
0.337316
0.305308
0.267288
1.80416
1.79897
1.151
0.228629
0.226396
0.249837
0.815358
0.829986
0.811134
0.78938
0.834875
0.372804
0.806402
1.98376
1.99344
0.443993
0.426987
0.443496
0.492978
0.489113
1.72206
1.77211
1.67739
1.68748
1.74272
1.76355
1.73201
1.69977
1.69776
1.75995
1.73172
1.73406
1.74865
1.75196
1.78511
1.74572
1.70515
1.74742
1.78878
1.93013
1.92829
1.94039
1.92925
1.93634
1.98351
1.20493
1.18161
1.17989
1.20222
1.16306
1.18161
1.14422
0.398815
0.348918
0.362702
1.4824
1.46881
0.325811
0.316768
0.27505
0.316859
1.43946
1.48619
1.46025
1.42098
1.47281
1.63536
1.58412
1.6168
1.58468
1.66243
0.351436
0.355681
0.373349
0.311148
1.6826
1.15005
1.19131
1.21154
1.30283
0.188442
0.170419
0.139847
0.16177
0.174983
0.205739
0.206373
0.17159
1.11805
1.10754
0.804176
0.799308
0.782296
1.60969
1.54525
1.57952
1.65072
1.67185
1.65739
1.63575
1.0501
1.08428
1.04557
1.04492
1.7342
1.77334
1.75953
1.09777
1.13266
1.18212
1.16338
1.1097
1.16448
1.1016
0.134071
0.149331
0.140521
1.05391
0.966364
1.01022
0.257342
0.251117
0.212245
0.273548
1.4969
1.51386
1.45687
1.51065
1.49219
1.53581
1.56954
1.47294
1.54614
0.132749
0.104827
0.182261
0.112138
0.163146
0.268607
0.261358
0.224014
0.241405
0.257466
1.26306
1.28651
0.153254
0.174606
1.24648
1.21563
1.24494
1.32261
1.58592
1.61814
1.63152
1.57637
1.56889
1.58669
1.5685
1.54165
1.53255
0.225742
0.249084
0.205132
0.207434
1.55922
1.54449
0.134429
0.169692
0.135781
0.188658
0.135288
0.102587
1.78254
1.10013
1.09105
1.05722
1.0737
0.369199
1.06996
1.05701
1.13277
0.517117
1.10651
1.05106
1.09898
1.12632
1.12572
1.06033
1.07876
1.1459
1.63934
1.63648
1.66758
1.63008
1.0574
1.09951
1.12125
1.14032
0.181123
0.195434
0.148798
0.243938
0.217564
0.241562
0.290143
0.282394
0.25181
0.289247
1.42416
1.45619
1.65595
1.6527
1.6984
1.59562
1.6256
1.64603
1.59717
0.320185
1.69105
0.485198
0.525333
0.508626
0.460316
0.181143
0.212606
0.23125
0.145818
0.177194
0.189398
0.275744
0.246207
0.255032
0.204236
0.217219
0.271834
0.236712
0.208661
0.209998
1.62535
1.08133
1.0877
1.051
0.735649
0.765602
0.740582
0.30932
1.90688
1.91919
1.1647
1.18226
1.15206
1.13207
1.13481
0.201897
0.203063
0.235657
0.259042
0.137346
0.172037
0.21688
0.28121
0.225173
1.71473
0.330619
0.326346
0.336935
0.375618
1.73356
0.324642
0.312633
0.305952
0.277021
0.117526
0.154035
0.100947
0.140394
0.141828
0.180076
0.170692
0.162303
0.11594
0.157618
0.12853
0.359638
0.323368
0.242852
0.243782
0.286059
0.251744
0.217557
0.282346
0.192784
0.263871
0.26003
0.671316
0.686132
0.704242
0.709037
1.85887
1.87675
1.82463
1.86745
0.714315
0.674357
0.635816
0.627006
0.662374
0.617509
0.681205
1.66961
1.75158
1.73714
1.77582
1.76685
1.75621
1.70206
0.748302
0.753892
0.728224
0.766256
0.120602
0.1473
0.151104
0.160017
0.167245
0.0953548
0.0770178
0.111346
1.18486
1.13327
1.10999
1.96426
1.81485
1.4922
1.48132
1.45382
1.42558
1.37301
1.06074
1.00933
1.07084
1.05024
1.0047
0.983875
1.0078
1.01114
1.01026
1.34611
1.26964
1.27609
1.32959
1.61423
0.911184
0.918549
0.937047
0.881126
0.938112
0.987527
0.316897
0.826043
0.817156
0.0958217
0.0943644
0.760096
0.750767
0.772267
0.204414
0.179975
0.10519
0.106745
0.104561
0.155424
0.185315
0.213175
0.140713
0.145523
0.149412
0.137463
1.74277
1.72487
1.68774
1.73736
1.78763
1.76978
1.41404
1.31404
1.30746
0.190443
1.00845
1.04728
0.999929
0.972336
0.192845
1.70469
1.65809
1.6831
1.68333
1.68699
1.73278
1.71407
1.71954
1.75792
1.70191
1.68437
1.73831
1.68922
0.129835
0.0827674
0.0873167
0.112517
0.273011
0.168221
0.126429
0.145783
0.0821945
0.0887004
1.91911
1.97388
1.97307
1.98643
1.90738
1.95099
1.54316
1.52463
1.52412
1.57995
1.58052
1.55148
1.60205
1.57228
0.895762
0.878823
0.867665
0.902975
0.855717
0.794781
0.805901
0.815416
0.849583
0.889878
0.911425
0.193046
0.188858
0.132541
0.746592
0.760797
0.806028
0.87911
0.822649
0.855962
0.790112
0.557968
0.605703
0.604834
0.554109
1.63141
1.69178
1.67156
1.0706
1.08396
1.13368
0.264763
1.57082
1.50598
0.203931
0.535487
0.513476
0.525764
0.507327
0.549294
0.139406
0.083611
0.103867
0.573524
0.521264
0.564452
1.63624
1.58795
1.57345
1.63706
1.67235
1.63936
1.59798
0.176168
1.56352
0.268309
1.62343
1.61612
0.13883
0.174835
1.51942
0.496059
0.536176
0.560931
0.503634
0.217712
0.221357
0.190183
0.546088
1.81378
0.148644
0.113282
0.101717
1.85155
0.078954
0.551834
0.0789885
0.0772609
0.885591
0.93357
0.832652
0.835278
0.888646
1.91819
1.8716
1.9573
1.96108
1.58499
1.60344
1.60304
1.57534
1.57523
0.268991
1.72204
0.203947
1.88575
1.89229
1.83346
1.93142
1.84764
0.170763
0.210124
0.210147
0.214975
0.109876
1.69955
0.211204
0.20611
0.987383
0.987304
1.03202
1.019
1.00119
0.942138
0.987632
0.992421
1.00375
0.139239
0.947038
0.968501
1.00225
0.957281
0.917837
0.906709
0.890462
0.98136
0.933393
0.512107
0.561899
0.518437
0.528597
0.580235
0.590699
0.539787
0.0777805
0.0785411
0.139873
0.176839
0.21149
0.168769
0.185681
0.212957
0.202082
0.162077
1.57275
1.51472
1.56992
1.56441
1.54141
1.59819
0.22034
1.63433
1.60026
1.52637
1.47089
1.46463
1.85801
1.82509
1.23835
1.25816
1.66739
1.60338
1.63577
1.24584
1.27462
1.28708
1.6549
1.59907
1.24592
1.79326
0.240056
0.18615
1.61112
1.64506
0.420137
0.457242
0.39917
0.391037
0.418422
0.43456
0.41253
0.459026
0.391689
1.52347
1.46652
0.208998
1.5064
1.55872
1.59167
1.61684
1.56038
0.223396
0.790391
0.791566
0.764192
0.714573
0.778
0.733044
0.831819
0.814992
1.10802
1.04928
1.05879
1.494
1.04692
1.12878
1.91182
1.93517
1.88609
1.94409
0.313197
0.274837
0.279932
0.303838
0.344509
0.329824
0.346265
0.350054
0.324437
0.187588
0.26033
0.472815
0.39679
0.405345
0.423465
0.449549
0.423006
0.93853
0.914023
0.974174
1.23467
1.23935
1.27214
1.27322
0.963601
0.920046
0.8765
0.871248
0.956694
0.996126
0.819294
0.84796
1.8688
1.90279
1.70821
1.75865
1.78272
1.77071
1.71914
0.893882
0.963448
0.950629
1.00456
0.988669
1.00304
0.944441
1.00314
1.0783
0.181989
0.177817
1.79014
1.81242
1.84006
0.640376
1.01584
0.702279
0.63865
1.11776
1.04177
1.06119
0.692386
1.88512
1.82511
1.85158
1.82382
0.700332
0.7361
0.680183
0.670438
1.03131
1.00161
0.279181
0.312363
0.276839
0.247083
0.28185
0.279881
0.807061
0.774253
0.738116
0.773542
0.692825
0.713392
0.749515
1.72496
1.76714
1.65692
1.01346
1.03265
0.985194
1.32142
1.3867
1.01645
0.99075
0.987404
0.949618
1.01749
0.797039
1.88553
1.91514
1.82306
1.90092
1.08793
1.14105
1.06967
1.12661
0.303189
0.244384
1.04799
0.802878
1.06258
1.03099
1.66137
1.66669
1.7039
1.76033
0.736685
0.701788
1.41253
1.36872
0.746131
0.71079
0.762667
1.91541
0.185319
0.211126
0.174937
1.89398
1.94563
1.94077
1.9634
0.403916
0.420593
0.436162
0.42976
0.411989
0.36871
0.420152
1.29935
1.21061
1.34807
0.833752
0.888927
1.62881
0.639554
0.645841
0.697092
0.367881
0.422396
0.564353
1.04423
0.144958
0.187756
0.803527
0.821023
0.844958
0.727895
0.776342
0.772883
0.833646
0.802121
0.764879
0.710308
0.654151
0.709559
0.658692
0.617392
0.609199
0.661592
1.67168
1.62362
1.62941
1.67143
0.762663
0.793497
0.817933
0.741386
0.126554
0.616858
0.605783
0.586292
0.459901
0.125859
1.34076
1.89639
1.69356
1.68565
1.77907
1.79502
1.79483
1.76633
0.139335
1.78479
1.74327
1.85582
1.80811
1.8323
1.79979
1.83011
1.80439
1.90538
1.94503
1.18941
1.2521
1.20755
1.95601
1.90801
0.988497
0.966721
0.926132
0.915033
0.575749
0.221019
1.86425
1.45458
1.48129
1.3964
1.33104
1.73114
1.72339
1.6965
1.42762
1.38568
0.506485
0.494866
0.485951
0.205489
0.180403
0.188904
0.215448
0.23462
1.82223
1.87145
1.87101
0.679237
0.715455
0.656323
1.92482
0.741401
0.650411
0.623603
0.626428
0.682911
0.344416
0.396674
0.354393
0.378919
0.331517
0.259217
0.217848
0.281938
0.239043
0.198009
0.192633
0.28498
0.243577
0.233913
0.315221
0.322895
0.348137
0.385701
0.358174
0.360537
0.31829
0.834806
0.849538
0.869286
0.856786
1.09995
1.04598
0.414856
0.409318
0.381805
0.430278
1.42541
1.35641
1.41906
1.51195
0.58551
0.64797
1.31364
1.35991
1.29854
1.3777
1.31949
1.74162
0.288402
0.323081
0.103489
0.102616
0.520663
0.432938
0.416004
0.458457
0.405556
0.459072
0.426712
0.432245
0.473883
0.476933
0.456658
0.530004
0.548735
0.34824
0.377678
1.12819
0.452432
0.420589
0.489307
0.510946
0.534892
0.497948
0.603954
0.558815
0.142358
0.631865
0.673177
0.738063
0.194733
0.392234
0.277302
0.311974
0.263752
0.125647
1.73576
1.73508
1.69678
1.07966
0.280097
0.284377
0.243018
0.306648
0.314967
0.32686
0.275559
0.236977
0.227631
0.271734
0.0923107
0.195062
0.188693
0.21972
0.189467
0.0990045
0.143625
0.107247
0.892403
0.949525
1.00089
1.05677
0.969426
0.9362
0.30766
0.306275
1.67625
1.88468
0.280116
0.316556
0.763358
0.780685
0.811377
0.807132
0.367534
0.355889
0.902519
0.890576
1.19273
1.17207
0.369122
0.364969
0.419619
0.402116
0.351986
0.377815
0.206371
0.175747
0.17851
0.172801
0.0904774
0.871781
0.195696
0.213656
1.31497
1.34768
1.26987
1.23709
1.28104
1.83118
1.72005
0.164862
0.189555
1.11609
1.06876
1.10022
1.06126
1.01897
1.00656
1.03026
1.97057
0.215868
1.59345
1.48804
1.51265
1.52657
1.58403
0.0778807
1.51451
1.53619
1.48974
1.66312
0.105626
0.96492
0.771194
1.7906
0.818599
1.09519
0.705249
0.835936
0.796484
0.743775
0.760087
0.82718
0.852073
1.03149
1.04002
1.36829
1.83711
1.81205
1.80101
0.953394
0.890405
0.713191
1.95009
1.8999
1.76449
0.211925
0.216712
0.848577
0.840599
1.46553
1.52127
1.5422
0.749382
0.707251
0.240611
0.226688
0.27229
0.290149
0.25698
0.307167
0.242178
0.765453
0.758602
0.112715
0.0752423
0.141854
1.64177
0.878534
0.168436
1.20514
1.22555
1.15513
1.1334
1.88555
1.84696
0.561717
1.6459
1.63807
1.6695
0.777092
0.730287
0.0930316
0.112803
1.46453
1.47539
1.41526
1.41122
0.196319
0.411757
0.572398
0.670265
0.63324
0.292152
0.343314
0.803325
0.244187
0.491485
0.47021
0.477338
0.537845
0.59457
0.571118
0.514501
0.511905
0.566883
0.563826
1.14893
0.184335
0.164455
0.350675
0.574134
0.220588
1.13357
0.209046
1.13447
0.086613
1.78621
0.223427
0.812531
0.825219
0.210927
0.221086
1.99258
0.906298
0.808044
0.853576
1.01258
0.978017
1.02242
1.09062
0.83733
1.36466
1.37561
1.67936
1.85578
1.77714
1.67642
0.240952
1.55553
1.5504
1.55383
1.29738
1.09807
0.513118
0.480046
0.456718
1.54756
1.15079
1.11327
1.06148
1.02572
1.00711
0.101559
0.375651
0.802498
0.838464
0.396305
0.456985
0.206406
0.215585
0.58975
0.602548
0.397237
0.407725
0.995111
1.7118
1.34148
0.755756
0.782332
0.288755
0.297753
0.2805
1.13088
0.209779
0.880225
0.407997
1.54785
0.0789201
0.424868
0.458451
0.211463
0.0849005
0.0850175
0.143064
0.108103
0.226649
0.279825
1.1609
1.0807
0.600125
0.648089
1.73313
0.385978
0.339785
0.308263
1.68659
0.782161
0.759281
1.85779
1.89709
0.145027
0.0863812
1.96025
1.28919
1.48861
1.71391
1.70214
1.52809
1.5726
0.248463
0.252804
1.81418
1.82893
1.78981
1.76223
1.84458
0.231686
1.26414
0.890602
1.00818
0.745858
0.797796
0.782285
1.09623
1.31938
1.30053
1.2888
1.2557
1.28688
1.27315
1.30581
0.215709
1.845
0.919121
0.883356
0.895421
1.69986
1.80813
1.79889
0.853072
0.135553
1.80197
1.78199
1.97328
1.96127
1.87462
0.292292
0.279404
0.0792738
0.103307
1.5397
0.166324
0.202789
1.52893
1.59522
1.52747
1.08711
0.506841
1.15999
1.2121
1.57748
0.525257
1.36903
1.20757
0.637313
0.617781
1.60247
1.7842
1.0231
1.018
0.964024
0.970335
0.268441
0.241374
0.49559
0.433667
0.467378
0.472019
0.0777127
1.73947
1.71729
1.72997
1.75118
0.242824
0.323598
0.332091
1.82164
0.369581
0.228759
0.188945
1.37587
1.55343
1.0327
1.03809
1.22603
1.21122
1.07342
0.402819
0.164109
1.5808
0.113334
0.440541
0.458196
0.714941
0.685082
0.785404
1.61115
1.56849
0.569757
0.566303
0.211525
0.603384
0.582344
0.634847
0.671701
0.307062
0.215221
0.184978
0.140321
0.219481
1.21544
0.181568
1.45875
0.230096
1.24741
0.215323
0.10594
0.0771643
0.102766
1.10582
1.23169
0.443758
1.02809
1.12542
1.2116
1.14139
1.27099
0.74056
0.656244
0.310199
0.19391
1.24788
1.08729
0.386561
0.75078
1.2156
1.08363
1.12189
1.12415
1.09405
1.90374
0.0820321
0.101011
0.109354
0.552064
0.544935
0.60019
1.78886
1.86962
0.730756
0.217858
0.270846
1.95893
1.74011
1.71379
1.66068
1.68923
1.27109
1.3585
1.91975
1.9984
1.44094
1.2344
1.38816
1.12822
0.626835
0.624141
1.80156
1.7474
0.846088
1.41609
0.666903
0.696068
0.640335
0.230368
1.25342
0.791525
0.481222
1.48931
1.7523
0.972578
1.05123
1.08008
1.01273
0.0767609
0.103185
0.0786252
0.0897564
0.742354
0.586057
0.63742
1.24472
0.898097
0.94315
0.619436
0.793582
0.992174
0.939274
0.335827
0.363352
0.542144
1.2051
0.308748
1.04537
1.03778
1.2014
1.53989
0.379027
1.05237
1.60435
0.652822
0.491311
0.602254
0.63745
0.482329
0.498685
1.99743
1.74203
0.525589
0.324746
0.25179
1.72033
0.563492
0.98029
1.98264
0.427501
0.535954
0.630597
0.646228
0.675923
0.646471
1.94518
1.93994
1.90985
0.700766
0.70671
1.96374
0.143616
1.96267
1.92026
0.109398
0.0850927
0.109859
1.89809
1.92443
1.01541
0.328855
0.360005
0.372392
0.415383
1.01978
1.04932
0.975663
0.451249
0.916268
0.6152
0.630202
0.642
0.70458
0.684622
0.674711
0.107404
1.04433
1.90325
1.99856
1.83266
1.86591
0.686771
0.709888
0.379053
0.913331
2.00204
1.11045
1.94778
1.78832
0.414826
0.411445
0.381447
0.34516
1.8668
1.74956
1.3554
0.726049
0.692623
1.07992
1.35767
0.877785
1.18768
2.00671
1.12027
0.446937
0.457822
0.578286
0.653271
1.61025
1.13576
0.389634
0.432597
0.355862
0.865862
0.380518
0.390482
0.213016
0.213755
0.529236
1.7772
1.97795
0.388811
0.39916
0.336704
0.199371
0.153315
0.408108
0.502144
0.274309
0.629992
0.587881
0.422011
1.8241
0.211542
0.184225
0.0826169
0.0897131
0.0725042
0.0796117
0.212731
1.73693
1.70418
1.2078
0.562714
0.580921
1.77114
0.356309
0.349954
0.570691
0.34025
1.01344
0.360472
0.248693
0.266028
1.08481
0.367312
0.403135
0.778039
0.73829
0.357014
0.467801
0.345201
0.44674
0.0761794
0.080036
0.077645
0.110264
0.229017
0.217846
0.229271
0.235221
0.458674
0.0784117
0.0709324
1.08053
0.0697525
0.0984143
1.11046
0.0818603
0.0816679
0.0815579
0.214289
0.649839
0.532895
0.439437
0.489392
0.0818605
0.0999064
0.158272
0.201142
0.745255
0.110415
0.0831299
0.535457
0.605202
0.794601
0.519035
1.30177
0.689776
0.394941
0.572155
0.133478
0.724617
0.726409
0.595073
0.086108
0.37465
0.510806
0.565841
0.0737711
0.715452
0.704295
0.399014
0.115167
0.453924
0.216603
1.18608
0.195408
0.0939189
0.190675
0.23795
1.69497
1.09025
0.132259
0.0788995
0.105387
0.676638
0.228534
0.554286
0.0855611
0.0764912
0.149012
0.0831301
0.0833804
0.0827144
0.0827438
0.065208
0.111548
0.0880096
0.729337
0.624673
0.678312
0.454298

SCALARS S_xx double 1
LOOKUP_TABLE  table5
8.57625e-43
8.57625e-43
0.0293774
0.027671
8.57625e-43
8.57625e-43
8.57625e-43
0.0200913
8.57625e-43
8.57625e-43
8.57625e-43
0.0209138
8.57625e-43
8.57625e-43
8.57625e-43
8.57625e-43
8.57625e-43
0.00935967
0.00619084
8.57625e-43
8.57625e-43
0.00300425
8.57625e-43
8.57625e-43
8.57625e-43
0.000383841
8.57625e-43
8.57625e-43
6.19276e-07
-1.55672e-06
1.12076e-06
5.55857e-08
-3.46308e-08
2.42429e-07
-2.51873e-06
8.897e-06
-0.000333787
0.000402262
-6.29321e-05
2.37596e-05
-1.02534e-07
1.79843e-07
-0.00253197
-0.00177777
8.57625e-43
8.57625e-43
8.57625e-43
8.57625e-43
8.57625e-43
8.57625e-43
8.57625e-43
8.57625e-43
8.57625e-43
8.57625e-43
8.57625e-43
8.57625e-43
8.57625e-43
8.57625e-43
8.57625e-43
8.57625e-43
8.57625e-43
8.57625e-43
8.57625e-43
8.57625e-43
8.57625e-43
8.57625e-43
0.0254463
0.0206237
0.0223111
0.0226602
0.0208537
0.017136
0.0165314
0.0213329
0.0206868
0.0184216
0.0200596
0.0229189
0.0245449
0.0264679
8.57625e-43
8.57625e-43
8.57625e-43
8.57625e-43
8.57625e-43
8.57625e-43
8.57625e-43
8.57625e-43
8.57625e-43
8.57625e-43
8.57625e-43
8.57625e-43
8.57625e-43
8.57625e-43
8.57625e-43
8.57625e-43
8.57625e-43
8.57625e-43
8.57625e-43
8.57625e-43
8.57625e-43
8.57625e-43
8.57625e-43
8.57625e-43
8.57625e-43
8.57625e-43
8.57625e-43
8.57625e-43
8.57625e-43
8.57625e-43
8.57625e-43
8.57625e-43
8.57625e-43
8.57625e-43
8.57625e-43
0.0130893
0.0128227
0.0169385
0.0157544
0.0126545
0.0125053
8.57625e-43
8.57625e-43
8.57625e-43
8.57625e-43
8.57625e-43
8.57625e-43
8.57625e-43
8.57625e-43
8.57625e-43
8.57625e-43
8.57625e-43
8.57625e-43
8.57625e-43
8.57625e-43
8.57625e-43
8.57625e-43
8.57625e-43
8.57625e-43
8.57625e-43
8.57625e-43
8.57625e-43
8.57625e-43
8.57625e-43
8.57625e-43
8.57625e-43
8.57625e-43
8.57625e-43
8.57625e-43
8.57625e-43
8.57625e-43
8.57625e-43
8.57625e-43
8.57625e-43
8.57625e-43
8.57625e-43
8.57625e-43
8.57625e-43
8.57625e-43
8.57625e-43
8.57625e-43
8.57625e-43
8.57625e-43
8.57625e-43
8.57625e-43
8.57625e-43
8.57625e-43
8.57625e-43
8.57625e-43
8.57625e-43
8.57625e-43
0.0305816
0.0361111
0.0270562
0.0301026
0.0272044
0.0270041
0.0267511
0.026152
0.0270375
0.0270533
0.0293157
0.0296897
0.0330125
0.031504
8.57625e-43
8.57625e-43
8.57625e-43
8.57625e-43
8.57625e-43
8.57625e-43
8.57625e-43
8.57625e-43
8.57625e-43
8.57625e-43
8.57625e-43
8.57625e-43
8.57625e-43
8.57625e-43
8.57625e-43
8.57625e-43
8.57625e-43
8.57625e-43
8.57625e-43
8.57625e-43
8.57625e-43
8.57625e-43
8.57625e-43
8.57625e-43
8.57625e-43
8.57625e-43
8.57625e-43
8.57625e-43
8.57625e-43
8.57625e-43
8.57625e-43
8.57625e-43
8.57625e-43
8.57625e-43
8.57625e-43
8.57625e-43
8.57625e-43
8.57625e-43
8.57625e-43
8.57625e-43
8.57625e-43
8.57625e-43
8.57625e-43
8.57625e-43
8.57625e-43
0.00864982
0.00835636
0.00846976
0.00844794
0.00811974
0.00771806
0.00721407
0.00697274
0.00651329
0.00658351
0.00605673
0.00612954
0.00602475
0.00543312
8.57625e-43
8.57625e-43
8.57625e-43
8.57625e-43
8.57625e-43
8.57625e-43
8.57625e-43
8.57625e-43
8.57625e-43
8.57625e-43
8.57625e-43
8.57625e-43
8.57625e-43
8.57625e-43
8.57625e-43
8.57625e-43
8.57625e-43
8.57625e-43
8.57625e-43
8.57625e-43
8.57625e-43
8.57625e-43
8.57625e-43
8.57625e-43
8.57625e-43
8.57625e-43
8.57625e-43
8.57625e-43
8.57625e-43
8.57625e-43
8.57625e-43
8.57625e-43
8.57625e-43
8.57625e-43
8.57625e-43
8.57625e-43
8.57625e-43
8.57625e-43
8.57625e-43
8.57625e-43
8.57625e-43
8.57625e-43
8.57625e-43
8.57625e-43
8.57625e-43
8.57625e-43
8.57625e-43
8.57625e-43
8.57625e-43
0.00354244
0.00457892
0.00581359
0.00554656
0.00415305
0.00219494
8.57625e-43
8.57625e-43
8.57625e-43
8.57625e-43
8.57625e-43
8.57625e-43
8.57625e-43
8.57625e-43
8.57625e-43
8.57625e-43
8.57625e-43
8.57625e-43
8.57625e-43
8.57625e-43
8.57625e-43
8.57625e-43
8.57625e-43
8.57625e-43
8.57625e-43
8.57625e-43
8.57625e-43
8.57625e-43
8.57625e-43
8.57625e-43
8.57625e-43
8.57625e-43
8.57625e-43
8.57625e-43
8.57625e-43
8.57625e-43
8.57625e-43
8.57625e-43
8.57625e-43
8.57625e-43
8.57625e-43
-0.000544371
-0.000295452
0.000389569
0.00095529
0.00102671
0.00110815
0.00153128
0.00159472
0.00164477
0.00169346
0.00155438
0.00206854
0.0020759
0.00214711
8.57625e-43
8.57625e-43
8.57625e-43
8.57625e-43
8.57625e-43
8.57625e-43
8.57625e-43
8.57625e-43
8.57625e-43
8.57625e-43
8.57625e-43
8.57625e-43
8.57625e-43
8.57625e-43
8.57625e-43
8.57625e-43
8.57625e-43
8.57625e-43
8.57625e-43
8.57625e-43
8.57625e-43
8.57625e-43
5.73105e-07
6.63171e-07
4.62703e-07
3.00889e-07
2.72649e-08
-3.84551e-07
-8.56273e-07
-1.06888e-06
-3.24075e-07
2.74824e-07
8.26168e-07
8.379e-07
5.04702e-07
2.46991e-07
-4.25311e-08
-1.92129e-07
-2.18373e-07
-6.93729e-08
1.26959e-07
1.50581e-07
2.1717e-07
3.62941e-07
-1.02852e-07
-2.18254e-08
1.30099e-07
2.47795e-07
1.49575e-07
2.70099e-07
4.06943e-07
1.31299e-07
1.10745e-07
-1.34556e-07
-2.30818e-07
-1.0982e-06
-3.00488e-06
-6.09001e-06
4.26508e-07
-2.92351e-08
-7.29608e-07
6.88174e-07
4.11247e-06
1.64341e-06
4.95481e-07
2.54984e-07
-8.43434e-06
-3.55744e-05
-9.84966e-05
-0.000255912
-0.00060249
-0.000349784
-0.000159666
-1.59245e-05
0.000218857
0.000358722
0.000138047
4.94473e-05
2.44814e-05
1.75658e-05
1.3704e-05
0.000106883
1.81882e-05
-5.59612e-05
-1.5271e-05
-1.78926e-05
-3.71707e-05
-2.10119e-05
2.56364e-05
4.40257e-06
-4.91172e-05
-0.000115907
7.53315e-05
0.000251421
0.000693566
0.00122301
0.00150882
-0.00156354
-0.00138866
-0.00105379
-0.000836398
-0.000604353
-0.000454049
-0.000305986
-0.000200301
-0.000128774
-8.10511e-05
-4.64819e-05
-2.67215e-05
-1.54369e-05
-8.70759e-06
-3.56945e-06
-2.17739e-06
-9.7593e-07
-7.40066e-07
-5.42281e-07
-2.54973e-07
-1.58116e-07
-6.1481e-07
-1.20962e-06
-1.85911e-06
-2.37695e-06
-2.67313e-06
-2.82875e-06
-2.30557e-06
-2.0797e-06
2.72044e-07
6.53176e-07
9.76304e-07
1.51105e-06
1.92103e-06
2.02613e-06
1.91791e-06
1.87221e-06
1.5006e-06
-2.07438e-07
-1.37394e-07
1.01394e-07
2.89421e-07
2.91266e-07
7.7917e-07
1.51339e-06
2.74871e-06
4.45209e-06
7.0448e-06
1.06318e-05
1.6272e-05
2.44732e-05
3.66103e-05
5.40057e-05
8.09487e-05
0.000121567
0.000184217
0.00027968
0.000439661
0.000685477
0.00110021
0.00159836
0.0020954
0.00247342
0.00210447
0.00106342
-0.000790659
-0.00346429
-0.00712819
-0.01228
-0.0173559
-0.0230945
-0.0270644
-0.0314835
-0.0387537
-0.0416738
-0.0464045
-0.0483279
-0.044654
-0.036049
-0.0220808
-0.00858226
-0.000774116
-0.00247056
-0.00298223
-0.00383597
-0.00385968
-0.00277625
-0.00255789
-0.00225163
-0.00209501
-0.00256413
-0.00287932
-0.00236247
-0.00213477
-0.00345701
-0.00606238
-0.0199207
-0.0322429
-0.0427938
-0.0440637
-0.0431887
-0.0402875
-0.036557
-0.0314843
-0.0275397
-0.0237193
-0.0205276
-0.0165019
-0.0124843
-0.00971069
-0.00674273
-0.00403845
-0.00257741
-0.00137842
-0.000803824
-0.000503457
-0.000301889
-0.0001496
-7.82973e-05
0.0243315
0.013276
0.00610644
-0.000823928
-0.000971368
0.0025519
0.0103348
0.0196161
0.0436354
0.0400238
0.0360894
0.0341675
0.0312295
0.0279485
0.0243338
0.0206618
0.0171985
0.0134647
0.00589801
0.0131523
0.0179578
0.0224323
0.0266835
0.0307723
0.035477
0.0388104
0.0402327
0.0368353
8.57625e-43
8.57625e-43
8.57625e-43
8.57625e-43
8.57625e-43
8.57625e-43
8.57625e-43
8.57625e-43
8.57625e-43
8.57625e-43
8.57625e-43
8.57625e-43
8.57625e-43
8.57625e-43
8.57625e-43
8.57625e-43
8.57625e-43
8.57625e-43
8.57625e-43
8.57625e-43
8.57625e-43
8.57625e-43
8.57625e-43
8.57625e-43
8.57625e-43
8.57625e-43
8.57625e-43
8.57625e-43
8.57625e-43
8.57625e-43
8.57625e-43
8.57625e-43
8.57625e-43
8.57625e-43
8.57625e-43
8.57625e-43
8.57625e-43
8.57625e-43
8.57625e-43
8.57625e-43
8.57625e-43
8.57625e-43
8.57625e-43
8.57625e-43
8.57625e-43
8.57625e-43
8.57625e-43
8.57625e-43
8.57625e-43
8.57625e-43
8.57625e-43
8.57625e-43
8.57625e-43
8.57625e-43
8.57625e-43
8.57625e-43
8.57625e-43
8.57625e-43
8.57625e-43
8.57625e-43
8.57625e-43
8.57625e-43
8.57625e-43
8.57625e-43
8.57625e-43
8.57625e-43
8.57625e-43
8.57625e-43
8.57625e-43
8.57625e-43
8.57625e-43
8.57625e-43
8.57625e-43
8.57625e-43
8.57625e-43
8.57625e-43
8.57625e-43
8.57625e-43
8.57625e-43
8.57625e-43
8.57625e-43
8.57625e-43
8.57625e-43
8.57625e-43
8.57625e-43
8.57625e-43
8.57625e-43
8.57625e-43
8.57625e-43
8.57625e-43
8.57625e-43
8.57625e-43
8.57625e-43
8.57625e-43
8.57625e-43
8.57625e-43
8.57625e-43
8.57625e-43
8.57625e-43
8.57625e-43
8.57625e-43
8.57625e-43
8.57625e-43
8.57625e-43
8.57625e-43
8.57625e-43
8.57625e-43
8.57625e-43
8.57625e-43
8.57625e-43
8.57625e-43
8.57625e-43
8.57625e-43
8.57625e-43
8.57625e-43
8.57625e-43
8.57625e-43
8.57625e-43
8.57625e-43
8.57625e-43
8.57625e-43
8.57625e-43
8.57625e-43
8.57625e-43
8.57625e-43
8.57625e-43
8.57625e-43
8.57625e-43
8.57625e-43
8.57625e-43
8.57625e-43
8.57625e-43
8.57625e-43
8.57625e-43
8.57625e-43
8.57625e-43
8.57625e-43
8.57625e-43
8.57625e-43
8.57625e-43
8.57625e-43
8.57625e-43
8.57625e-43
8.57625e-43
8.57625e-43
8.57625e-43
8.57625e-43
8.57625e-43
8.57625e-43
8.57625e-43
8.57625e-43
8.57625e-43
8.57625e-43
8.57625e-43
8.57625e-43
8.57625e-43
8.57625e-43
8.57625e-43
8.57625e-43
8.57625e-43
8.57625e-43
8.57625e-43
8.57625e-43
8.57625e-43
8.57625e-43
8.57625e-43
8.57625e-43
8.57625e-43
8.57625e-43
8.57625e-43
8.57625e-43
8.57625e-43
8.57625e-43
8.57625e-43
8.57625e-43
8.57625e-43
8.57625e-43
8.57625e-43
8.57625e-43
8.57625e-43
8.57625e-43
8.57625e-43
8.57625e-43
8.57625e-43
8.57625e-43
8.57625e-43
8.57625e-43
8.57625e-43
8.57625e-43
8.57625e-43
8.57625e-43
8.57625e-43
8.57625e-43
8.57625e-43
8.57625e-43
8.57625e-43
8.57625e-43
8.57625e-43
8.57625e-43
8.57625e-43
8.57625e-43
8.57625e-43
8.57625e-43
8.57625e-43
8.57625e-43
8.57625e-43
8.57625e-43
8.57625e-43
8.57625e-43
8.57625e-43
8.57625e-43
8.57625e-43
8.57625e-43
8.57625e-43
8.57625e-43
8.57625e-43
8.57625e-43
8.57625e-43
8.57625e-43
8.57625e-43
8.57625e-43
8.57625e-43
8.57625e-43
8.57625e-43
8.57625e-43
8.57625e-43
8.57625e-43
8.57625e-43
8.57625e-43
8.57625e-43
8.57625e-43
8.57625e-43
8.57625e-43
8.57625e-43
8.57625e-43
8.57625e-43
8.57625e-43
8.57625e-43
8.57625e-43
8.57625e-43
8.57625e-43
8.57625e-43
8.57625e-43
8.57625e-43
8.57625e-43
8.57625e-43
8.57625e-43
8.57625e-43
8.57625e-43
8.57625e-43
8.57625e-43
8.57625e-43
8.57625e-43
8.57625e-43
8.57625e-43
8.57625e-43
8.57625e-43
8.57625e-43
8.57625e-43
8.57625e-43
8.57625e-43
8.57625e-43
8.57625e-43
8.57625e-43
8.57625e-43
8.57625e-43
8.57625e-43
8.57625e-43
8.57625e-43
8.57625e-43
8.57625e-43
8.57625e-43
8.57625e-43
8.57625e-43
8.57625e-43
8.57625e-43
8.57625e-43
8.57625e-43
8.57625e-43
8.57625e-43
8.57625e-43
8.57625e-43
8.57625e-43
8.57625e-43
8.57625e-43
8.57625e-43
8.57625e-43
8.57625e-43
8.57625e-43
8.57625e-43
8.57625e-43
8.57625e-43
8.57625e-43
8.57625e-43
0.0240503
0.0238467
0.0210512
0.0224859
0.0229819
0.0252382
0.0309325
0.0322775
0.0284953
0.0263928
0.0281725
0.0236571
0.0228723
0.0229756
0.0200604
0.0216915
0.0261624
0.0268974
0.0199549
0.0172857
0.0161221
0.0166211
0.021178
0.019448
0.0182797
0.0202205
0.0185241
0.0174507
0.0120603
0.0114577
0.0129232
0.01319
0.00889116
0.00486095
0.00291698
0.00199101
0.00478029
0.00657807
0.00629455
0.0100102
0.0150455
0.0158697
8.57625e-43
8.57625e-43
8.57625e-43
8.57625e-43
8.57625e-43
8.57625e-43
8.57625e-43
8.57625e-43
8.57625e-43
8.57625e-43
8.57625e-43
8.57625e-43
8.57625e-43
8.57625e-43
8.57625e-43
8.57625e-43
8.57625e-43
8.57625e-43
8.57625e-43
8.57625e-43
8.57625e-43
8.57625e-43
8.57625e-43
8.57625e-43
8.57625e-43
8.57625e-43
8.57625e-43
8.57625e-43
8.57625e-43
8.57625e-43
8.57625e-43
8.57625e-43
8.57625e-43
8.57625e-43
8.57625e-43
8.57625e-43
8.57625e-43
8.57625e-43
8.57625e-43
8.57625e-43
8.57625e-43
8.57625e-43
8.57625e-43
8.57625e-43
8.57625e-43
8.57625e-43
8.57625e-43
8.57625e-43
8.57625e-43
8.57625e-43
8.57625e-43
8.57625e-43
8.57625e-43
8.57625e-43
8.57625e-43
8.57625e-43
8.57625e-43
8.57625e-43
8.57625e-43
8.57625e-43
8.57625e-43
8.57625e-43
8.57625e-43
8.57625e-43
8.57625e-43
8.57625e-43
8.57625e-43
8.57625e-43
8.57625e-43
8.57625e-43
8.57625e-43
8.57625e-43
8.57625e-43
8.57625e-43
8.57625e-43
8.57625e-43
8.57625e-43
8.57625e-43
8.57625e-43
8.57625e-43
8.57625e-43
8.57625e-43
8.57625e-43
8.57625e-43
8.57625e-43
8.57625e-43
8.57625e-43
8.57625e-43
8.57625e-43
8.57625e-43
8.57625e-43
8.57625e-43
8.57625e-43
8.57625e-43
8.57625e-43
8.57625e-43
8.57625e-43
8.57625e-43
8.57625e-43
8.57625e-43
8.57625e-43
8.57625e-43
8.57625e-43
8.57625e-43
8.57625e-43
8.57625e-43
8.57625e-43
8.57625e-43
8.57625e-43
8.57625e-43
8.57625e-43
8.57625e-43
8.57625e-43
8.57625e-43
8.57625e-43
8.57625e-43
8.57625e-43
8.57625e-43
8.57625e-43
8.57625e-43
8.57625e-43
8.57625e-43
8.57625e-43
8.57625e-43
8.57625e-43
8.57625e-43
8.57625e-43
8.57625e-43
8.57625e-43
8.57625e-43
8.57625e-43
8.57625e-43
8.57625e-43
8.57625e-43
8.57625e-43
8.57625e-43
8.57625e-43
8.57625e-43
8.57625e-43
8.57625e-43
8.57625e-43
8.57625e-43
8.57625e-43
8.57625e-43
8.57625e-43
8.57625e-43
8.57625e-43
8.57625e-43
8.57625e-43
8.57625e-43
8.57625e-43
8.57625e-43
8.57625e-43
8.57625e-43
8.57625e-43
8.57625e-43
8.57625e-43
8.57625e-43
8.57625e-43
8.57625e-43
8.57625e-43
8.57625e-43
8.57625e-43
8.57625e-43
8.57625e-43
8.57625e-43
8.57625e-43
8.57625e-43
8.57625e-43
8.57625e-43
8.57625e-43
8.57625e-43
8.57625e-43
8.57625e-43
8.57625e-43
8.57625e-43
8.57625e-43
8.57625e-43
8.57625e-43
8.57625e-43
8.57625e-43
8.57625e-43
8.57625e-43
8.57625e-43
8.57625e-43
8.57625e-43
8.57625e-43
8.57625e-43
8.57625e-43
8.57625e-43
8.57625e-43
8.57625e-43
8.57625e-43
8.57625e-43
8.57625e-43
8.57625e-43
8.57625e-43
8.57625e-43
8.57625e-43
8.57625e-43
8.57625e-43
8.57625e-43
8.57625e-43
8.57625e-43
8.57625e-43
8.57625e-43
8.57625e-43
8.57625e-43
8.57625e-43
8.57625e-43
8.57625e-43
8.57625e-43
8.57625e-43
8.57625e-43
8.57625e-43
8.57625e-43
8.57625e-43
8.57625e-43
8.57625e-43
8.57625e-43
8.57625e-43
8.57625e-43
8.57625e-43
8.57625e-43
8.57625e-43
8.57625e-43
8.57625e-43
8.57625e-43
8.57625e-43
8.57625e-43
8.57625e-43
8.57625e-43
8.57625e-43
8.57625e-43
8.57625e-43
8.57625e-43
8.57625e-43
8.57625e-43
8.57625e-43
8.57625e-43
8.57625e-43
8.57625e-43
8.57625e-43
8.57625e-43
8.57625e-43
8.57625e-43
8.57625e-43
8.57625e-43
8.57625e-43
8.57625e-43
8.57625e-43
8.57625e-43
8.57625e-43
8.57625e-43
8.57625e-43
8.57625e-43
8.57625e-43
8.57625e-43
8.57625e-43
8.57625e-43
8.57625e-43
8.57625e-43
8.57625e-43
8.57625e-43
8.57625e-43
8.57625e-43
8.57625e-43
8.57625e-43
8.57625e-43
8.57625e-43
8.57625e-43
8.57625e-43
8.57625e-43
8.57625e-43
8.57625e-43
8.57625e-43
8.57625e-43
8.57625e-43
8.57625e-43
8.57625e-43
8.57625e-43
8.57625e-43
8.57625e-43
8.57625e-43
8.57625e-43
8.57625e-43
8.57625e-43
8.57625e-43
8.57625e-43
8.57625e-43
8.57625e-43
8.57625e-43
8.57625e-43
8.57625e-43
8.57625e-43
8.57625e-43
8.57625e-43
8.57625e-43
8.57625e-43
8.57625e-43
8.57625e-43
8.57625e-43
8.57625e-43
8.57625e-43
8.57625e-43
8.57625e-43
8.57625e-43
8.57625e-43
8.57625e-43
8.57625e-43
8.57625e-43
8.57625e-43
8.57625e-43
8.57625e-43
8.57625e-43
8.57625e-43
8.57625e-43
8.57625e-43
8.57625e-43
8.57625e-43
8.57625e-43
8.57625e-43
8.57625e-43
8.57625e-43
8.57625e-43
8.57625e-43
8.57625e-43
8.57625e-43
8.57625e-43
8.57625e-43
8.57625e-43
8.57625e-43
8.57625e-43
8.57625e-43
8.57625e-43
8.57625e-43
8.57625e-43
8.57625e-43
8.57625e-43
8.57625e-43
8.57625e-43
8.57625e-43
8.57625e-43
8.57625e-43
8.57625e-43
8.57625e-43
8.57625e-43
8.57625e-43
8.57625e-43
8.57625e-43
8.57625e-43
8.57625e-43
8.57625e-43
8.57625e-43
8.57625e-43
8.57625e-43
8.57625e-43
8.57625e-43
8.57625e-43
8.57625e-43
8.57625e-43
8.57625e-43
8.57625e-43
8.57625e-43
8.57625e-43
8.57625e-43
8.57625e-43
8.57625e-43
8.57625e-43
8.57625e-43
8.57625e-43
8.57625e-43
8.57625e-43
8.57625e-43
8.57625e-43
8.57625e-43
8.57625e-43
8.57625e-43
8.57625e-43
8.57625e-43
8.57625e-43
8.57625e-43
8.57625e-43
8.57625e-43
8.57625e-43
8.57625e-43
8.57625e-43
8.57625e-43
8.57625e-43
8.57625e-43
8.57625e-43
8.57625e-43
8.57625e-43
8.57625e-43
8.57625e-43
8.57625e-43
8.57625e-43
8.57625e-43
8.57625e-43
8.57625e-43
8.57625e-43
8.57625e-43
8.57625e-43
8.57625e-43
8.57625e-43
8.57625e-43
8.57625e-43
8.57625e-43
8.57625e-43
8.57625e-43
8.57625e-43
8.57625e-43
8.57625e-43
8.57625e-43
8.57625e-43
8.57625e-43
8.57625e-43
8.57625e-43
8.57625e-43
8.57625e-43
8.57625e-43
8.57625e-43
8.57625e-43
8.57625e-43
8.57625e-43
8.57625e-43
8.57625e-43
8.57625e-43
8.57625e-43
8.57625e-43
8.57625e-43
8.57625e-43
8.57625e-43
8.57625e-43
8.57625e-43
8.57625e-43
8.57625e-43
8.57625e-43
8.57625e-43
8.57625e-43
8.57625e-43
8.57625e-43
8.57625e-43
8.57625e-43
8.57625e-43
8.57625e-43
8.57625e-43
8.57625e-43
8.57625e-43
8.57625e-43
8.57625e-43
8.57625e-43
8.57625e-43
8.57625e-43
8.57625e-43
8.57625e-43
8.57625e-43
8.57625e-43
8.57625e-43
8.57625e-43
8.57625e-43
8.57625e-43
8.57625e-43
8.57625e-43
8.57625e-43
8.57625e-43
8.57625e-43
8.57625e-43
8.57625e-43
8.57625e-43
8.57625e-43
8.57625e-43
8.57625e-43
8.57625e-43
8.57625e-43
8.57625e-43
8.57625e-43
8.57625e-43
8.57625e-43
8.57625e-43
8.57625e-43
8.57625e-43
8.57625e-43
8.57625e-43
8.57625e-43
8.57625e-43
8.57625e-43
8.57625e-43
8.57625e-43
8.57625e-43
8.57625e-43
8.57625e-43
8.57625e-43
8.57625e-43
8.57625e-43
8.57625e-43
8.57625e-43
8.57625e-43
8.57625e-43
8.57625e-43
8.57625e-43
8.57625e-43
8.57625e-43
8.57625e-43
8.57625e-43
8.57625e-43
8.57625e-43
8.57625e-43
8.57625e-43
8.57625e-43
8.57625e-43
8.57625e-43
8.57625e-43
8.57625e-43
8.57625e-43
8.57625e-43
8.57625e-43
8.57625e-43
8.57625e-43
8.57625e-43
8.57625e-43
8.57625e-43
8.57625e-43
8.57625e-43
8.57625e-43
8.57625e-43
8.57625e-43
8.57625e-43
8.57625e-43
8.57625e-43
8.57625e-43
8.57625e-43
8.57625e-43
8.57625e-43
8.57625e-43
8.57625e-43
8.57625e-43
8.57625e-43
8.57625e-43
8.57625e-43
8.57625e-43
8.57625e-43
8.57625e-43
8.57625e-43
8.57625e-43
8.57625e-43
8.57625e-43
8.57625e-43
8.57625e-43
8.57625e-43
8.57625e-43
8.57625e-43
8.57625e-43
8.57625e-43
8.57625e-43
8.57625e-43
8.57625e-43
8.57625e-43
8.57625e-43
8.57625e-43
8.57625e-43
8.57625e-43
8.57625e-43
8.57625e-43
8.57625e-43
8.57625e-43
8.57625e-43
8.57625e-43
8.57625e-43
8.57625e-43
8.57625e-43
8.57625e-43
8.57625e-43
8.57625e-43
8.57625e-43
8.57625e-43
8.57625e-43
8.57625e-43
8.57625e-43
8.57625e-43
8.57625e-43
8.57625e-43
8.57625e-43
8.57625e-43
8.57625e-43
8.57625e-43
8.57625e-43
8.57625e-43
8.57625e-43
8.57625e-43
8.57625e-43
8.57625e-43
8.57625e-43
8.57625e-43
8.57625e-43
8.57625e-43
8.57625e-43
8.57625e-43
8.57625e-43
8.57625e-43
8.57625e-43
8.57625e-43
8.57625e-43
8.57625e-43
8.57625e-43
8.57625e-43
8.57625e-43
8.57625e-43
8.57625e-43
8.57625e-43
8.57625e-43
8.57625e-43
8.57625e-43
8.57625e-43
8.57625e-43
8.57625e-43
8.57625e-43
8.57625e-43
8.57625e-43
8.57625e-43
8.57625e-43
8.57625e-43
8.57625e-43
8.57625e-43
8.57625e-43
8.57625e-43
8.57625e-43
8.57625e-43
8.57625e-43
8.57625e-43
8.57625e-43
8.57625e-43
8.57625e-43
8.57625e-43
8.57625e-43
8.57625e-43
8.57625e-43
8.57625e-43
8.57625e-43
8.57625e-43
0.00364285
0.00327926
0.00315019
0.0029648
0.00281237
0.00266072
0.0021967
0.00203101
0.0019379
0.00191742
0.00167
0.00153776
0.00146801
0.00182312
0.00528258
0.00528635
0.00467501
0.00466251
0.00466568
0.00425934
0.00427919
0.00415688
0.0036768
0.00349408
0.00358675
0.00318452
0.00336606
0.00378933
0.00678554
0.00679988
0.00649133
0.00651202
0.00650734
0.00570017
0.00568053
0.00566412
0.00552961
0.00560012
0.00524426
0.00512271
0.00594255
0.00560627
4.72783e-07
4.97205e-07
3.59348e-07
1.72113e-07
-5.28705e-08
-3.4482e-07
-7.90583e-07
3.55247e-07
2.58714e-07
1.91344e-07
1.48735e-07
2.30455e-08
-1.24392e-07
-2.98539e-07
2.42201e-07
1.15166e-07
1.50166e-07
1.55742e-07
1.07269e-07
1.4283e-07
1.75119e-07
6.61596e-08
1.54271e-08
5.1853e-08
1.11057e-07
1.70052e-07
2.18796e-07
6.25233e-07
-1.76287e-07
1.02753e-08
2.07553e-07
2.85959e-07
-7.7287e-08
6.90467e-08
2.65327e-07
3.70338e-07
1.28677e-07
1.90973e-07
3.17221e-07
4.07789e-07
-2.94547e-07
-6.27864e-07
-1.32652e-06
-2.96135e-06
-8.10265e-08
-2.87811e-07
-7.06896e-07
-4.71844e-07
1.12479e-07
1.62463e-07
1.43972e-07
7.45322e-07
2.68098e-07
5.56077e-07
1.45613e-06
2.59735e-06
-2.92128e-06
-2.29599e-05
-6.71925e-05
-0.000183584
-0.000348766
2.01283e-06
-1.17996e-05
-2.57838e-05
-7.79847e-05
-0.000133334
-1.18062e-06
-2.28659e-06
1.03387e-06
1.00424e-05
0.000105317
5.49874e-06
1.60565e-05
3.64507e-05
0.000121392
0.000277018
-6.19128e-06
-8.68637e-06
-8.50479e-06
-1.46587e-05
-2.02384e-05
7.99411e-06
-2.66853e-05
-2.79565e-05
-7.14009e-05
-5.5205e-05
-7.88833e-06
-1.52773e-05
-6.77692e-05
-4.36969e-05
-4.49521e-06
1.12486e-05
1.15652e-07
4.54707e-07
5.0527e-07
6.7002e-07
7.79998e-09
4.59634e-07
-3.14019e-07
-7.20646e-07
3.12749e-07
-1.24045e-06
-4.60334e-05
0.0010148
0.00093662
0.000987019
-2.65838e-06
-2.55933e-06
8.99642e-05
5.2754e-05
0.00098164
0.000756186
0.000928992
-0.000826395
-0.0012043
-0.00187748
-2.00814e-06
-2.48601e-06
-2.1547e-06
-9.90477e-07
-3.47978e-07
-1.72778e-06
0.000231481
2.21518e-06
-5.69045e-05
-0.000220584
-1.09536e-05
-0.000318679
-0.000601901
-0.001112
-0.000435753
-0.000146098
-8.73592e-05
-3.1641e-05
-1.79758e-05
-3.31632e-06
-1.65299e-06
-4.24742e-07
-0.000816502
-6.33087e-06
-7.03285e-07
0.00010857
0.00111668
0.00106113
0.000506402
0.000229677
5.76437e-05
3.24897e-05
0.000292051
1.41448e-05
-8.8827e-07
-4.31917e-07
3.63303e-07
3.3416e-07
-1.59699e-06
2.30958e-07
0.000665399
0.000849173
-0.00127073
-1.66248e-06
0.000274936
-2.78814e-06
0.000820414
8.13517e-05
8.93071e-07
1.88104e-06
-0.000944699
-3.21215e-06
-2.71192e-06
0.000568295
-3.26653e-06
0.0009184
0.00097035
0.00119758
-2.21299e-06
0.000291903
8.58304e-06
0.000249347
-2.6091e-06
-1.33391e-05
-0.000154047
-6.55946e-05
-3.90489e-05
-0.000231665
-2.66467e-07
-0.000323283
-0.000419185
-0.000100022
-0.000567467
-0.000826371
-2.3573e-05
-8.72867e-06
-8.37981e-07
-4.77415e-06
-1.32422e-06
4.69633e-05
0.00106931
0.000827692
7.98571e-05
0.000126964
0.000136874
2.99039e-05
-1.08953e-06
-6.90662e-07
-1.75311e-06
2.80827e-07
0.000514872
5.4955e-07
-2.77051e-06
-0.000160766
0.000431084
-3.18504e-06
0.000611776
-3.31187e-06
0.000564014
0.000637132
-2.81553e-06
-0.000638446
-1.72478e-06
0.000262327
-0.00148221
9.65025e-07
-2.39535e-06
0.000347699
-0.00147107
-0.000152775
-7.17531e-05
-0.000103018
-6.80668e-06
-4.24871e-05
-1.09426e-05
-0.000218581
-2.75119e-05
-1.79036e-05
-4.6866e-06
-2.23242e-06
-0.000315876
-3.01946e-06
-0.000421509
-0.000545281
0.000327704
2.6977e-06
7.63921e-05
4.36619e-05
4.08018e-05
0.000668515
2.0461e-05
4.0824e-05
2.03321e-07
-1.12679e-06
2.0239e-07
-6.00965e-07
-1.68488e-06
2.07914e-07
-4.958e-05
-0.000276167
-2.40301e-06
-4.20607e-06
0.000510738
0.000330984
-2.99408e-06
-3.49406e-06
-0.000539782
-0.000732464
0.000285031
0.000507421
0.000206097
-2.43242e-06
-0.000873837
-1.45398e-06
-4.32923e-06
-1.37226e-05
-8.91058e-06
-7.04823e-05
-0.000118559
-1.93625e-05
-4.62314e-05
-2.73387e-05
-4.65258e-06
-0.00045759
-0.000308159
-0.000154424
-0.000205857
-6.85566e-06
3.54061e-07
0.000220998
8.41394e-07
6.12441e-06
-9.12631e-07
1.49733e-05
1.5324e-06
1.33433e-05
-1.64552e-06
-0.00179016
-9.4987e-07
-1.38208e-07
4.64001e-07
-1.26829e-06
0.000118296
-6.62434e-05
-0.000211775
-0.000363726
-0.000479773
-4.4259e-06
-3.77849e-06
-2.5005e-06
-3.21863e-08
2.42743e-06
-8.48086e-06
-1.20478e-05
-1.63006e-05
-4.86123e-06
-8.24278e-06
-6.23084e-05
-3.79644e-05
-0.000311933
-0.000111677
-2.64703e-05
-5.41399e-06
-0.000194798
-0.000169021
1.41676e-05
4.95058e-06
1.66478e-05
-2.77457e-05
-1.76533e-05
-2.91367e-05
-2.71366e-05
-6.54758e-08
-4.4407e-07
-2.94012e-08
-6.20289e-07
-0.000164694
-0.000262971
5.01572e-05
-3.34562e-06
-4.4869e-06
6.32697e-08
-2.16239e-06
-6.53867e-06
-6.37892e-06
-6.24303e-06
-5.72675e-06
-5.38908e-06
-6.85918e-06
-5.11832e-05
-0.00016205
-9.13001e-05
5.76958e-06
2.23288e-06
5.1721e-06
2.42962e-06
-7.36609e-05
-6.65848e-05
-7.68828e-07
-4.78184e-08
-1.58306e-06
-3.73331e-06
-3.60265e-06
-0.000145389
-0.000194022
-9.38288e-08
-3.42701e-07
1.23104e-07
0.000479386
3.66761e-08
2.34935e-07
4.70724e-07
6.96726e-07
1.04901e-06
1.33818e-06
1.5481e-06
1.28683e-06
1.19928e-06
9.58059e-07
1.07381e-07
1.60938e-07
8.60025e-08
1.94932e-07
3.15744e-07
3.54067e-08
7.10881e-08
3.41534e-07
1.58616e-08
-1.21624e-07
-2.17381e-07
-3.82479e-07
-7.17241e-07
-9.67041e-07
-7.7531e-07
-9.27722e-07
-1.14036e-06
-9.134e-07
-1.96843e-07
-5.2424e-07
-8.98188e-07
-1.44839e-06
-1.91397e-06
-2.16963e-06
-2.19206e-06
-1.85662e-06
-1.69686e-06
6.94042e-07
-1.74497e-07
4.85428e-07
5.76425e-08
-1.77176e-07
1.10884e-07
1.20273e-06
4.53789e-06
7.32659e-06
0.00142525
1.52205e-06
2.87192e-06
-4.19152e-07
-7.88787e-07
-1.79887e-06
1.60428e-07
1.96001e-07
-7.21499e-08
1.2017e-07
9.8831e-07
1.66048e-06
1.9092e-06
1.94291e-06
1.8295e-06
1.62378e-06
1.27648e-06
8.4745e-07
4.06732e-07
1.16136e-05
-2.23805e-05
1.88035e-05
-3.19005e-05
2.79182e-05
-7.44325e-05
4.19593e-05
-0.000144119
6.46835e-05
-0.000277797
9.82397e-05
-0.000317059
0.000151876
0.000232986
0.000356745
0.000558182
0.000904937
0.00187911
0.00227411
0.00276114
0.00172481
0.000223793
-0.00193366
-0.00488618
-0.00908363
-0.0151289
-0.0198246
-0.0282849
-0.0286667
-0.0343611
-0.0427544
-0.0424632
-0.0531226
-0.0443408
-0.0372952
-0.02511
-0.0146112
-0.00519463
-0.0044119
-0.00556894
-0.00617867
-0.00648822
-0.00604599
-0.00571265
-0.000466089
-0.000642248
-0.00108314
-0.00204657
-0.00325596
-0.00510862
-0.00893184
-0.0115228
-0.0151071
-0.0179028
-0.0210114
-0.0235458
-0.0278061
-0.0324898
-0.03671
-0.03843
-0.0400236
-0.0476695
-0.0391153
-0.0230573
-0.00934539
-0.000179214
1.83666e-05
1.25682e-05
-8.62523e-05
8.54949e-07
1.99966e-07
6.14658e-07
2.48099e-07
3.63766e-07
1.24767e-06
-5.25763e-08
3.45472e-07
-0.00566498
-0.00347195
-0.000305427
9.74336e-07
2.58495e-06
2.3428e-05
-0.043003
-0.0438733
0.00191243
3.40477e-07
3.57362e-05
0.00038113
0.000560567
-0.0434762
-0.0332154
-0.00413688
2.22e-06
1.40874e-06
0.00243494
0.0020811
-0.00150343
-0.0069406
-0.0107819
-0.0181654
-0.0219358
-0.0144358
-0.0164117
-0.0155276
-0.000887009
-0.00120985
-0.0045599
-0.0130429
-0.0187359
-0.0240981
-0.0282134
-0.000538898
1.43261e-05
-0.0391819
-0.030269
-0.0045116
-0.00648237
7.44341e-08
2.38113e-06
4.60599e-06
2.49561e-06
1.99357e-06
3.11782e-06
2.25698e-06
8.57693e-06
5.93843e-05
9.54842e-05
0.000141871
0.000232638
0.00138472
0.000840186
-0.00279728
-0.00455569
-0.0133465
-0.0248325
-0.0486937
-0.0144251
-0.0157845
-0.0386892
-0.0499114
-0.0320456
-0.0151702
-0.0164686
0.00263514
0.000772651
-0.00844783
-0.0294282
-0.0339742
-0.0416541
-0.0442333
-0.0410318
-0.00457172
-0.000166949
-0.00013984
1.60357e-06
1.29353e-06
-0.000231954
-0.000197788
-1.19664e-05
-0.000115612
-5.64657e-05
-7.7925e-05
-0.000111436
-2.75652e-05
1.09158e-06
6.37727e-07
-0.014964
6.43832e-07
-0.000196156
1.41661e-06
-0.000342222
9.02825e-07
-0.0162536
0.00189228
-0.0328472
-0.0395903
-0.0429694
-0.0251327
-0.0373154
-0.0403607
-0.0284231
-0.0247908
-0.032711
7.24545e-06
-0.0449193
-0.0261717
-0.0261858
-0.0430675
-0.0339706
-0.015292
-0.0265447
-0.0459222
-0.0148633
-0.0286856
-0.0258368
-0.0282894
-0.0367918
-0.0408
-0.0214374
-0.0194625
-0.0185043
-0.016369
-0.0145724
-0.0101487
-0.0124257
-0.00833068
-0.006687
-0.00546136
-0.00289336
0.000127055
-0.00343183
7.99683e-05
0.00147937
-0.000555277
2.26906e-06
4.77981e-05
-0.00205581
0.000650743
0.000948518
1.98747e-06
0.000451218
2.9231e-05
0.00209087
4.55192e-06
0.000185563
1.13065e-05
2.25842e-06
-0.00116767
0.000721828
0.000293078
2.37387e-06
2.40464e-06
1.86807e-05
0.00186112
2.63633e-06
-0.0160926
-0.000713775
1.16944e-06
7.23402e-07
-0.000399618
1.8931e-06
-0.000271563
-2.25253e-06
-2.28846e-05
-1.7128e-05
-2.13956e-05
-1.34251e-05
2.20464e-05
8.40892e-07
1.29634e-06
2.38804e-07
1.53603e-06
-0.000849346
8.94619e-06
-0.000808481
0.000375768
0.000500564
1.49343e-05
-0.00160518
2.95667e-06
2.40854e-06
0.00113912
0.00144225
-0.00312889
-0.00261691
-0.00470522
-0.00592619
0.000498201
-0.00730687
-0.00988885
-0.0106734
-0.0139438
-0.0134034
-0.016212
-0.0252043
-0.0248296
-0.025823
-0.0182667
-0.0204685
1.78973e-06
-0.0227868
-0.0239903
-0.0278786
-0.0281372
-0.0312458
-0.0317845
-0.0366754
-0.03497
-0.039339
-0.0385527
-0.0451719
-0.0410226
-0.0467816
-0.0428674
-0.0416493
-0.0377907
-0.036482
-0.0359972
-0.0266059
-0.0359217
-0.0373179
0.000711351
-0.025952
-0.0267587
0.000112195
6.88205e-05
0.000252088
4.05834e-05
2.40541e-05
0.00146113
0.00156581
7.04143e-06
4.16996e-06
0.000169215
2.71577e-06
2.25259e-06
1.41601e-06
-0.000478478
1.75603e-06
-0.000319097
-0.000301327
1.11045e-06
-8.70042e-05
-8.04632e-06
4.51339e-07
8.68531e-05
-1.36162e-05
3.39073e-05
2.26374e-05
9.16038e-05
7.20542e-07
6.45914e-07
1.08738e-06
1.09225e-06
-0.00129962
-0.00197053
1.22734e-05
-0.000636722
3.59088e-06
-0.00226958
0.000454642
0.000275791
2.77544e-06
-0.00475408
0.00057285
-0.00373696
0.000778169
-0.00550264
-0.0082179
1.72113e-05
-0.00820031
0.000569682
-0.0114819
-0.0117052
-0.0156233
-0.0138306
-0.0175397
-0.0194702
-0.03714
-0.0210041
-0.0238339
-0.0244657
-0.0287024
-0.0276762
-0.0312404
-0.0347091
-0.0323437
-0.0350814
-0.0406563
-0.036553
-0.0420654
-0.0427057
-0.039182
-0.0439554
-0.0438888
-0.0447333
-0.0439152
-0.0334981
-0.0357881
3.35319e-06
4.3759e-07
5.02413e-05
0.000983169
0.00105277
0.000188696
8.74912e-05
0.00118244
7.12295e-06
2.69037e-05
0.000137268
5.88682e-06
2.65714e-06
-0.000524619
1.58683e-06
-0.000421746
-0.000221718
2.3828e-05
-1.16167e-06
0.000131458
2.73077e-05
8.21712e-06
5.86426e-05
8.46071e-05
-0.000615792
-6.86149e-08
9.73795e-07
8.68778e-07
2.28712e-07
-0.00156629
-0.00285417
-0.00243921
-0.000798897
-0.0042498
1.13448e-05
-0.00474298
0.000442653
0.000286702
0.000207421
0.000611349
3.69146e-06
-0.007048
-0.00716825
-0.00953955
-0.0102567
0.000198099
-0.0141275
-0.0119048
-0.0180632
-0.0151824
-0.0195995
-0.0219034
-0.0224091
-0.0426233
-0.0262223
-0.0257879
-0.029861
-0.0334049
-0.0299784
-0.0377814
-0.0330265
-0.0416588
-0.0378709
-0.0425919
-0.0408001
-0.0440613
-0.0429856
7.50903e-06
0.00074161
0.000653868
1.30081e-05
2.55137e-05
0.000772923
5.20342e-06
2.34167e-06
7.66268e-07
-0.000399042
0.00011971
6.00929e-07
-2.87197e-06
-2.39629e-06
0.000162631
0.000210271
-3.4254e-07
-0.0489881
8.17688e-07
-0.00231219
-0.00377494
-0.00190883
-0.00381308
-0.000515958
-0.00564656
-0.00576393
0.000387658
-0.00844085
-0.00829043
1.80631e-06
-0.0108971
-0.0116894
-2.2232e-05
-0.0150741
-0.0135788
-0.0171262
-0.0191794
-0.0205717
-0.0231613
-0.0246759
-0.0269458
-0.0276614
-0.0466102
-0.0431556
-0.0311006
-0.0284692
-0.037818
-0.0349881
-0.0394015
-0.0384469
-0.0406471
-0.0438586
0.000510147
0.000376065
0.000479142
-0.000826407
1.56017e-06
1.06121e-06
-0.000239072
-6.31575e-06
0.000220563
-8.27308e-06
-1.37468e-06
-1.5019e-06
-0.0431354
-0.00277472
-0.00475727
-0.00356711
-0.00185362
-0.00562186
-0.00626289
-0.000598639
-0.00751922
0.000323449
-0.0100283
-0.0103003
-0.0115793
-0.0139433
-0.0153519
-0.017483
-0.0182575
-0.0207762
-0.0230782
-0.0239157
-0.0267778
-0.0282934
-0.0303644
-0.0322566
-0.0332401
-0.0377801
-0.000133038
-0.000959568
0.00021563
9.59214e-05
-0.0381723
-0.000594964
3.63426e-06
-0.000387643
0.000285744
-1.342e-05
-0.00120831
-7.69236e-05
-0.0404361
0.000136095
-0.00611977
0.00029241
0.000333348
-0.000453312
0.0169453
0.0264296
0.0264503
0.0270614
0.0303214
0.0279651
0.0315751
0.0334883
0.0293969
0.0292658
0.026564
0.026929
0.0231755
0.0190139
0.0138157
0.0118553
0.0125646
0.0131758
0.0134386
0.0132742
0.0140066
0.0140535
0.0147174
0.0139013
0.0101538
0.010755
0.0117618
0.0169904
0.0036598
0.00375059
0.00364037
0.00546143
0.00334087
0.00376279
0.00468366
0.00458084
0.00445867
0.00528856
0.0051221
0.00581
0.00434885
0.00646536
-0.00150877
-0.00109269
-0.00194274
-0.00182536
-0.00137485
-0.0016209
-0.00162488
-0.00151543
-0.00140919
-0.00122186
-0.00122516
-0.000576081
-0.000708654
-0.000935566
-2.55981e-05
-5.85186e-05
-4.76731e-05
-3.85796e-05
1.71597e-05
-0.000134595
-0.000136734
-0.00016458
0.000135043
-0.000120401
-0.000258697
-0.000334868
0.000545871
1.59691e-05
-0.00026468
-0.000486073
0.00125669
0.000792943
-0.000114725
-0.000738653
0.00305932
0.00183492
-1.05883e-05
-0.00121897
0.00396835
0.00187475
-4.11456e-05
-0.00188576
0.00460494
0.00230476
-0.000881597
-0.00337973
0.00590635
0.00292443
-0.00110916
-0.00584007
0.00779311
0.00331838
-0.00149798
-0.00626736
0.00886612
0.00297926
-0.00295671
-0.00924255
0.0106261
0.00261388
-0.00451656
-0.0125006
0.0131531
0.00325322
-0.00512787
-0.0148952
0.0159887
0.00598439
-0.00584582
-0.0171676
0.0184834
0.00655147
-0.00580152
-0.0198419
0.0207317
0.0083516
-0.00827321
-0.022759
0.0231551
0.00730444
-0.00771955
-0.0263747
0.0230562
0.00703662
-0.00954345
-0.0286408
0.0245794
0.0034188
-0.0142538
-0.0310355
0.016171
-0.00280473
-0.0159368
-0.0301076
0.00741929
-0.00739801
-0.0183526
-0.0299651
0.00356125
-0.00794977
-0.015068
-0.0238876
0.00577263
-0.0020233
-0.0103095
-0.0151208
0.0111018
0.00426075
-0.0021195
-0.00646041
0.010992
0.00378044
-0.00139374
-0.00594415
0.00561101
-0.00287708
-0.00972368
-0.0152898
0.00166344
-0.00937357
-0.0165996
-0.0265735
0.00200206
-0.011725
-0.0222659
-0.0335259
0.0161415
-0.00343599
-0.0179711
-0.0341237
0.0258771
0.00304509
-0.0122633
-0.0284712
0.0251832
0.0075303
-0.0119617
-0.029
0.0237436
0.00625985
-0.006501
-0.0229092
0.020502
0.00752646
-0.00723015
-0.0251582
0.0177606
0.00617418
-0.00581595
-0.0186796
0.0148668
0.00503875
-0.00508799
-0.0152556
0.0116907
0.00425251
-0.00438664
-0.012601
0.00854309
0.0036235
-0.00293592
-0.00994633
0.00609364
0.00348406
-0.000829461
-0.00592153
0.0088084
0.00557002
0.000603694
-0.00278804
0.006775
0.00423013
0.00116628
-0.000811096
0.00448065
0.00300589
0.00131921
0.000619581
0.00310118
0.00262197
0.00168694
0.00148735
0.00150574
0.0017878
0.00127815
0.00167737
-0.000386853
0.000195155
0.000680097
0.00144276
-0.0012292
-0.000556555
0.00015277
0.00107836
-0.00102794
-0.000684231
-6.09674e-05
0.000704686
-0.000756217
-0.000546757
-7.84045e-05
0.000432676
-0.000552
-0.000370953
-3.13335e-05
0.000294062
-0.000379339
-0.000222107
-4.10102e-05
0.000186027
-0.00023747
-0.000136876
-1.63564e-06
0.000131232
-0.000162271
-8.37732e-05
8.80256e-06
9.19708e-05
-0.000100605
-4.84037e-05
9.76822e-06
6.12241e-05
-6.08385e-05
-2.74716e-05
1.01147e-05
4.55956e-05
-3.62548e-05
-1.88591e-05
1.37098e-05
3.21475e-05
-2.11113e-05
-7.90765e-06
1.06454e-05
2.26226e-05
-1.23355e-05
-2.31552e-06
8.24926e-06
1.49336e-05
-7.51412e-06
2.02352e-07
5.94283e-06
1.02623e-05
-3.1175e-06
-1.34236e-09
4.86361e-06
7.81842e-06
-2.25605e-06
5.7209e-09
3.25654e-06
5.26886e-06
-1.15139e-06
1.8205e-07
2.2796e-06
3.33645e-06
-6.66906e-07
7.89944e-08
1.33293e-06
1.99227e-06
-6.03609e-07
-1.37142e-07
7.6254e-07
9.88922e-07
-3.70151e-07
-9.8612e-08
3.6034e-07
6.02861e-07
0.0518848
0.0442367
0.0394726
0.0357263
0.0319664
0.0273513
0.0232353
0.01819
0.0134385
0.00654938
0.0515652
0.0427996
0.0418724
0.0320404
0.0327258
0.0250243
0.023884
0.0168896
0.013563
0.00723734
0.0539273
0.042642
0.0392077
0.0330008
0.0296842
0.0247503
0.0217358
0.017566
0.0128543
0.00775823
0.048891
0.0409065
0.0394998
0.0359532
0.0300033
0.0255783
0.0222113
0.0182388
0.0137093
0.00878909
0.0424201
0.0396812
0.0384226
0.0347479
0.0310503
0.0257263
0.0218759
0.0181533
0.0140919
0.00999909
0.046138
0.0386321
0.0368534
0.0331807
0.0310191
0.0243488
0.0231257
0.0183002
0.0143074
0.011784
0.050248
0.0375711
0.0353657
0.0326202
0.029593
0.0262983
0.0238301
0.018905
0.0152455
0.0120993
0.0406504
0.0423314
0.0349301
0.0359672
0.0280782
0.0270194
0.0247662
0.0190253
0.0150523
0.012683
0.0406761
0.0411457
0.0358659
0.0353404
0.0283881
0.0251999
0.0234278
0.0208852
0.0168029
0.0128521
0.0458506
0.0360948
0.0395703
0.0333188
0.0302198
0.0258841
0.0231184
0.021615
0.0165043
0.0123613
0.0450053
0.0405839
0.038973
0.0355855
0.0324539
0.0265802
0.023467
0.0205317
0.0164243
0.0118938
0.0519889
0.0418954
0.0355877
0.0331579
0.0297677
0.0270044
0.0228278
0.0194458
0.0164421
0.0121824
0.0490545
0.0445457
0.0382043
0.0353592
0.031488
0.0275369
0.0246169
0.0206105
0.0174792
0.0127661
0.0507684
0.0423232
0.0376974
0.0351538
0.0320947
0.0284268
0.0246635
0.0208965
0.0175989
0.0133421
8.57625e-43
8.57625e-43
8.57625e-43
8.57625e-43
8.57625e-43
8.57625e-43
8.57625e-43
8.57625e-43
8.57625e-43
8.57625e-43
8.57625e-43
8.57625e-43
8.57625e-43
8.57625e-43
8.57625e-43
8.57625e-43
8.57625e-43
8.57625e-43
8.57625e-43
8.57625e-43
8.57625e-43
8.57625e-43
8.57625e-43
8.57625e-43
8.57625e-43
8.57625e-43
8.57625e-43
8.57625e-43
8.57625e-43
8.57625e-43
8.57625e-43
8.57625e-43
8.57625e-43
8.57625e-43
8.57625e-43
8.57625e-43
8.57625e-43
8.57625e-43
8.57625e-43
8.57625e-43
8.57625e-43
8.57625e-43
8.57625e-43
8.57625e-43
8.57625e-43
8.57625e-43
8.57625e-43
8.57625e-43
8.57625e-43
8.57625e-43
8.57625e-43
8.57625e-43
8.57625e-43
8.57625e-43
8.57625e-43
8.57625e-43
8.57625e-43
8.57625e-43
8.57625e-43
8.57625e-43
8.57625e-43
8.57625e-43
8.57625e-43
8.57625e-43
8.57625e-43
8.57625e-43
8.57625e-43
8.57625e-43
8.57625e-43
8.57625e-43
8.57625e-43
8.57625e-43
8.57625e-43
8.57625e-43
8.57625e-43
8.57625e-43
8.57625e-43
8.57625e-43
8.57625e-43
8.57625e-43
8.57625e-43
8.57625e-43
8.57625e-43
8.57625e-43
8.57625e-43
8.57625e-43
8.57625e-43
8.57625e-43
8.57625e-43
8.57625e-43
8.57625e-43
8.57625e-43
8.57625e-43
8.57625e-43
8.57625e-43
8.57625e-43
8.57625e-43
8.57625e-43
8.57625e-43
8.57625e-43
8.57625e-43
8.57625e-43
8.57625e-43
8.57625e-43
8.57625e-43
8.57625e-43
8.57625e-43
8.57625e-43
8.57625e-43
8.57625e-43
8.57625e-43
8.57625e-43
8.57625e-43
8.57625e-43
8.57625e-43
8.57625e-43
8.57625e-43
8.57625e-43
8.57625e-43
8.57625e-43
8.57625e-43
8.57625e-43
8.57625e-43
8.57625e-43
8.57625e-43
8.57625e-43
8.57625e-43
8.57625e-43
8.57625e-43
8.57625e-43
8.57625e-43
8.57625e-43
8.57625e-43
8.57625e-43
8.57625e-43
8.57625e-43
8.57625e-43
8.57625e-43
8.57625e-43
8.57625e-43
8.57625e-43
8.57625e-43
8.57625e-43
8.57625e-43
8.57625e-43
8.57625e-43
8.57625e-43
8.57625e-43
8.57625e-43
8.57625e-43
8.57625e-43
8.57625e-43
8.57625e-43
8.57625e-43
8.57625e-43
8.57625e-43
8.57625e-43
8.57625e-43
8.57625e-43
8.57625e-43
8.57625e-43
8.57625e-43
8.57625e-43
8.57625e-43
8.57625e-43
8.57625e-43
8.57625e-43
8.57625e-43
8.57625e-43
8.57625e-43
8.57625e-43
8.57625e-43
8.57625e-43
8.57625e-43
8.57625e-43
8.57625e-43
8.57625e-43
8.57625e-43
8.57625e-43
8.57625e-43
8.57625e-43
8.57625e-43
8.57625e-43
8.57625e-43
8.57625e-43
8.57625e-43
8.57625e-43
8.57625e-43
8.57625e-43
8.57625e-43
8.57625e-43
8.57625e-43
8.57625e-43
8.57625e-43
8.57625e-43
8.57625e-43
8.57625e-43
8.57625e-43
8.57625e-43
8.57625e-43
8.57625e-43
8.57625e-43
8.57625e-43
8.57625e-43
8.57625e-43
8.57625e-43
8.57625e-43
8.57625e-43
8.57625e-43
8.57625e-43
8.57625e-43
8.57625e-43
8.57625e-43
8.57625e-43
8.57625e-43
8.57625e-43
8.57625e-43
8.57625e-43
8.57625e-43
8.57625e-43
8.57625e-43
8.57625e-43
8.57625e-43
8.57625e-43
8.57625e-43
8.57625e-43
8.57625e-43
8.57625e-43
8.57625e-43
8.57625e-43
8.57625e-43
8.57625e-43
8.57625e-43
8.57625e-43
8.57625e-43
8.57625e-43
8.57625e-43
8.57625e-43
8.57625e-43
8.57625e-43
8.57625e-43
8.57625e-43
8.57625e-43
8.57625e-43
8.57625e-43
8.57625e-43
8.57625e-43
8.57625e-43
8.57625e-43
8.57625e-43
8.57625e-43
8.57625e-43
8.57625e-43
8.57625e-43
8.57625e-43
8.57625e-43
8.57625e-43
8.57625e-43
8.57625e-43
8.57625e-43
8.57625e-43
8.57625e-43
8.57625e-43
8.57625e-43
8.57625e-43
8.57625e-43
8.57625e-43
8.57625e-43
8.57625e-43
8.57625e-43
8.57625e-43
8.57625e-43
8.57625e-43
8.57625e-43
8.57625e-43
8.57625e-43
8.57625e-43
8.57625e-43
8.57625e-43
8.57625e-43
8.57625e-43
8.57625e-43
8.57625e-43
8.57625e-43
8.57625e-43
8.57625e-43
8.57625e-43
8.57625e-43
8.57625e-43
8.57625e-43
8.57625e-43
8.57625e-43
8.57625e-43
8.57625e-43
8.57625e-43
8.57625e-43
8.57625e-43
8.57625e-43
8.57625e-43
8.57625e-43
8.57625e-43
8.57625e-43
8.57625e-43
8.57625e-43
8.57625e-43
8.57625e-43
8.57625e-43
8.57625e-43
8.57625e-43
8.57625e-43
8.57625e-43
8.57625e-43
8.57625e-43
8.57625e-43
8.57625e-43
8.57625e-43
8.57625e-43
8.57625e-43
8.57625e-43
8.57625e-43
8.57625e-43
8.57625e-43
8.57625e-43
8.57625e-43
8.57625e-43
8.57625e-43
8.57625e-43
8.57625e-43
8.57625e-43
8.57625e-43
8.57625e-43
8.57625e-43
8.57625e-43
8.57625e-43
8.57625e-43
8.57625e-43
8.57625e-43
8.57625e-43
8.57625e-43
8.57625e-43
8.57625e-43
8.57625e-43
8.57625e-43
8.57625e-43
8.57625e-43
8.57625e-43
8.57625e-43
8.57625e-43
8.57625e-43
8.57625e-43
8.57625e-43
8.57625e-43
8.57625e-43
8.57625e-43
8.57625e-43
8.57625e-43
8.57625e-43
8.57625e-43
8.57625e-43
8.57625e-43
8.57625e-43
8.57625e-43
8.57625e-43
8.57625e-43
8.57625e-43
8.57625e-43
8.57625e-43
8.57625e-43
8.57625e-43
8.57625e-43
8.57625e-43
8.57625e-43
8.57625e-43
8.57625e-43
8.57625e-43
8.57625e-43
8.57625e-43
8.57625e-43
8.57625e-43
8.57625e-43
8.57625e-43
8.57625e-43
8.57625e-43
8.57625e-43
8.57625e-43
8.57625e-43
8.57625e-43
8.57625e-43
8.57625e-43
8.57625e-43
8.57625e-43
8.57625e-43
8.57625e-43
8.57625e-43
8.57625e-43
8.57625e-43
8.57625e-43
8.57625e-43
8.57625e-43
8.57625e-43
8.57625e-43
8.57625e-43
8.57625e-43
8.57625e-43
8.57625e-43
8.57625e-43
8.57625e-43
8.57625e-43
8.57625e-43
8.57625e-43
8.57625e-43
8.57625e-43
8.57625e-43
8.57625e-43
8.57625e-43
8.57625e-43
8.57625e-43
8.57625e-43
8.57625e-43
8.57625e-43
8.57625e-43
8.57625e-43
8.57625e-43
8.57625e-43
8.57625e-43
8.57625e-43
8.57625e-43
8.57625e-43
8.57625e-43
8.57625e-43
8.57625e-43
8.57625e-43
8.57625e-43
8.57625e-43
8.57625e-43
8.57625e-43
8.57625e-43
8.57625e-43
8.57625e-43
8.57625e-43
8.57625e-43
8.57625e-43
8.57625e-43
8.57625e-43
8.57625e-43
8.57625e-43
8.57625e-43
8.57625e-43
8.57625e-43
8.57625e-43
8.57625e-43
8.57625e-43
8.57625e-43
8.57625e-43
8.57625e-43
8.57625e-43
8.57625e-43
8.57625e-43
8.57625e-43
8.57625e-43
8.57625e-43
8.57625e-43
8.57625e-43
8.57625e-43
8.57625e-43
8.57625e-43
8.57625e-43
8.57625e-43
8.57625e-43
8.57625e-43
8.57625e-43
8.57625e-43
8.57625e-43
8.57625e-43
8.57625e-43
8.57625e-43
8.57625e-43
8.57625e-43
8.57625e-43
8.57625e-43
8.57625e-43
8.57625e-43
8.57625e-43
8.57625e-43
8.57625e-43
8.57625e-43
8.57625e-43
8.57625e-43
8.57625e-43
8.57625e-43
8.57625e-43
8.57625e-43
8.57625e-43
8.57625e-43
8.57625e-43
8.57625e-43
8.57625e-43
8.57625e-43
8.57625e-43
8.57625e-43
8.57625e-43
8.57625e-43
8.57625e-43
8.57625e-43
8.57625e-43
8.57625e-43
8.57625e-43
8.57625e-43
8.57625e-43
8.57625e-43
8.57625e-43
8.57625e-43
8.57625e-43
8.57625e-43
8.57625e-43
8.57625e-43
8.57625e-43
8.57625e-43
8.57625e-43
8.57625e-43
8.57625e-43
8.57625e-43
8.57625e-43
8.57625e-43
8.57625e-43
8.57625e-43
8.57625e-43
8.57625e-43
8.57625e-43
8.57625e-43
8.57625e-43
8.57625e-43
8.57625e-43
8.57625e-43
8.57625e-43
8.57625e-43
8.57625e-43
8.57625e-43
8.57625e-43
8.57625e-43
8.57625e-43
8.57625e-43
8.57625e-43
8.57625e-43
8.57625e-43
8.57625e-43
8.57625e-43
8.57625e-43
8.57625e-43
8.57625e-43
8.57625e-43
8.57625e-43
8.57625e-43
8.57625e-43
8.57625e-43
8.57625e-43
8.57625e-43
8.57625e-43
8.57625e-43
8.57625e-43
8.57625e-43
8.57625e-43
8.57625e-43
8.57625e-43
8.57625e-43
8.57625e-43
8.57625e-43
8.57625e-43
8.57625e-43
8.57625e-43
8.57625e-43
8.57625e-43
8.57625e-43
8.57625e-43
8.57625e-43
8.57625e-43
8.57625e-43
8.57625e-43
8.57625e-43
8.57625e-43
8.57625e-43
8.57625e-43
8.57625e-43
8.57625e-43
8.57625e-43
8.57625e-43
8.57625e-43
8.57625e-43
8.57625e-43
8.57625e-43
8.57625e-43
8.57625e-43
8.57625e-43
8.57625e-43
8.57625e-43
8.57625e-43
8.57625e-43
8.57625e-43
8.57625e-43
8.57625e-43
8.57625e-43
8.57625e-43
8.57625e-43
8.57625e-43
8.57625e-43
8.57625e-43
8.57625e-43
8.57625e-43
8.57625e-43
8.57625e-43
8.57625e-43
8.57625e-43
8.57625e-43
8.57625e-43
8.57625e-43
8.57625e-43
8.57625e-43
8.57625e-43
8.57625e-43
8.57625e-43
8.57625e-43
8.57625e-43
8.57625e-43
8.57625e-43
8.57625e-43
8.57625e-43
8.57625e-43
8.57625e-43
8.57625e-43
8.57625e-43
8.57625e-43
8.57625e-43
8.57625e-43
8.57625e-43
8.57625e-43
8.57625e-43
8.57625e-43
8.57625e-43
8.57625e-43
8.57625e-43
8.57625e-43
8.57625e-43
8.57625e-43
8.57625e-43
8.57625e-43
8.57625e-43
8.57625e-43
8.57625e-43
8.57625e-43
8.57625e-43
8.57625e-43
8.57625e-43
8.57625e-43
8.57625e-43
8.57625e-43
8.57625e-43
8.57625e-43
8.57625e-43
8.57625e-43
8.57625e-43
8.57625e-43
8.57625e-43
8.57625e-43
8.57625e-43
8.57625e-43
8.57625e-43
8.57625e-43
8.57625e-43
8.57625e-43
8.57625e-43
8.57625e-43
8.57625e-43
8.57625e-43
8.57625e-43
8.57625e-43
8.57625e-43
8.57625e-43
8.57625e-43
8.57625e-43
8.57625e-43
8.57625e-43
8.57625e-43
8.57625e-43
8.57625e-43
8.57625e-43
8.57625e-43
8.57625e-43
8.57625e-43
8.57625e-43
8.57625e-43
8.57625e-43
8.57625e-43
8.57625e-43
8.57625e-43
8.57625e-43
8.57625e-43
8.57625e-43
8.57625e-43
8.57625e-43
8.57625e-43
8.57625e-43
8.57625e-43
8.57625e-43
8.57625e-43
8.57625e-43
8.57625e-43
8.57625e-43
8.57625e-43
8.57625e-43
8.57625e-43
8.57625e-43
8.57625e-43
8.57625e-43
8.57625e-43
8.57625e-43
8.57625e-43
8.57625e-43
8.57625e-43
8.57625e-43
8.57625e-43
8.57625e-43
8.57625e-43
8.57625e-43
8.57625e-43
8.57625e-43
8.57625e-43
8.57625e-43
8.57625e-43
8.57625e-43
8.57625e-43
8.57625e-43
8.57625e-43
8.57625e-43
8.57625e-43
8.57625e-43
8.57625e-43
8.57625e-43
8.57625e-43
8.57625e-43
8.57625e-43
8.57625e-43
8.57625e-43
8.57625e-43
8.57625e-43
8.57625e-43
8.57625e-43
8.57625e-43
8.57625e-43
8.57625e-43
8.57625e-43
8.57625e-43
8.57625e-43
8.57625e-43
8.57625e-43
8.57625e-43
8.57625e-43
8.57625e-43
8.57625e-43
8.57625e-43
8.57625e-43
8.57625e-43
8.57625e-43
5.49087e-05
6.41112e-05
0.000117043
0.000117959
3.71066e-05
1.27307e-05
-7.39985e-05
6.79583e-05
-0.000103261
-6.399e-05
-0.000227709
-0.000229698
0.000104692
-0.000166809
-5.98227e-05
-0.000163939
-0.000163436
7.83509e-05
0.000314822
0.000239825
0.000279479
0.000552084
0.000154733
5.44215e-05
3.78162e-05
1.01998e-05
1.02777e-06
9.47336e-07
1.34767e-06
9.4126e-07
5.40428e-07
5.73102e-07
1.14542e-06
5.97348e-07
6.3704e-07
1.17169e-06
3.61424e-07
5.04254e-07
5.52863e-07
7.63053e-07
-3.77845e-08
2.40852e-07
1.63609e-07
7.42504e-07
5.11457e-07
4.98221e-07
8.13513e-08
4.00724e-07
5.12649e-08
7.82694e-08
-0.0235607
-0.00408466
-0.0143881
-0.0201092
-0.0409854
-0.026687
-0.0417032
-0.0252677
-0.0314931
-0.0144481
-2.79326e-05
-0.000111089
-0.000111658
-0.000115798
-1.1506e-05
4.78427e-05
6.87938e-05
-1.28839e-05
0.0125793
0.000105225
4.67938e-05
-0.00842283
-0.011369
0.00416959
-0.0158447
-0.0168058
0.00310651
0.000477846
0.00956798
2.73971e-07
3.06923e-07
2.27963e-07
1.52931e-07
3.27067e-07
2.76112e-07
2.05715e-07
2.58113e-07
5.65625e-07
4.66763e-07
0.000157348
3.10163e-05
0.000227718
2.00988e-07
-2.31115e-07
2.7245e-08
2.51806e-07
-5.5289e-07
4.90886e-08
-1.24974e-07
-2.05911e-07
-6.59774e-07
-8.31759e-07
-5.61991e-07
3.60312e-08
1.07277e-07
-2.12062e-07
-2.69404e-07
-6.88698e-07
-0.000256147
-0.000538569
-0.00107668
0.000178858
-0.000240555
-0.000385014
-0.000551775
-0.000575552
1.7053e-05
-0.000175971
-0.0010837
-0.000517634
0.00626438
0.010043
-0.000885172
-0.000713871
6.54326e-07
-4.41669e-07
3.97635e-07
-5.47444e-08
-3.96137e-07
5.86904e-07
-8.23953e-07
-1.29158e-06
-5.15929e-05
-5.09891e-05
-3.26216e-05
-1.08072e-05
-4.886e-05
-7.28863e-05
-4.04764e-06
-0.0325642
-0.0372179
-0.0198528
-1.53629e-05
-3.34634e-05
-7.52438e-05
0.00199184
0.00258755
0.00194845
0.00481249
-0.000195044
0.00552306
-0.00216627
0.00282971
0.00181193
0.00553488
-0.0004898
-0.00218574
0.00132478
0.00881746
0.00990023
0.00370433
0.00318083
-0.000837543
-0.00312853
-0.0143822
-0.0133671
-0.00750867
-0.0102078
-0.0159314
-0.00922256
-0.0109769
-0.0207338
-0.0196155
-0.0217409
-0.0238829
-0.00501795
-0.000155481
-1.67838e-05
-0.000118884
-0.000198888
-5.37472e-06
4.624e-05
-0.000112363
-0.000213911
-0.000391176
-0.000442473
-0.000314344
-0.000376369
-0.000220617
4.90654e-05
8.80227e-07
1.64717e-05
1.60385e-05
2.78228e-05
-0.0166372
-0.0110434
-0.00545155
-0.00575964
-3.09844e-05
-1.23799e-05
-3.03542e-05
-2.14743e-05
-7.63e-06
4.11302e-08
-1.56119e-06
-1.25907e-05
-3.28049e-06
-3.05724e-06
-2.6703e-06
2.83653e-06
7.90111e-07
2.18948e-05
4.93345e-05
5.62505e-06
2.85603e-05
6.24093e-05
6.01927e-05
3.64508e-05
5.42996e-06
2.04502e-05
1.2218e-05
-3.09098e-07
2.49877e-05
3.46003e-05
-9.45461e-05
-1.77768e-05
0.000128218
8.79214e-05
6.93697e-05
0.000224298
0.000193254
-1.97985e-07
-8.96898e-07
-5.14233e-07
-1.21988e-06
1.9455e-07
-8.78075e-07
2.99076e-07
-1.46741e-06
-3.02085e-07
8.90094e-07
-1.46649e-06
-3.72114e-07
-1.12923e-07
-6.45222e-07
7.08393e-08
-4.04585e-07
1.87104e-07
1.70122e-07
-1.04715e-06
-1.60837e-06
-0.00123455
-0.000397092
0.00280388
0.00246353
0.00271121
-0.00061048
-0.00425472
-0.000690183
8.55968e-07
1.58898e-08
1.45458e-06
-4.86741e-08
-1.64863e-08
1.89008e-06
1.60158e-06
1.22126e-07
1.5609e-06
7.54719e-07
9.72598e-08
9.33042e-07
5.59189e-07
2.87302e-07
3.27522e-07
6.23811e-08
-6.27754e-07
-2.12025e-07
2.4862e-07
-1.35967e-07
-9.84696e-07
-6.49887e-08
8.7947e-07
2.49634e-07
1.31997e-06
4.79149e-07
-8.28274e-07
-3.24171e-06
-1.73624e-07
0.0149258
-2.1674e-07
-7.97079e-09
1.24202e-06
9.42816e-07
3.57325e-07
-0.00471549
-0.00383355
0.00254078
-0.00443537
-1.44393e-07
1.45359e-06
2.35453e-07
-3.47613e-08
7.30217e-08
-5.71089e-08
-0.000120317
-0.000195032
-8.72753e-05
-7.15811e-05
-0.00225501
-0.00057407
-0.00102611
-0.00285194
0.000971238
-0.00353891
-0.00400285
-0.00117351
-0.0027768
-0.000116848
-0.00397387
-0.00904963
-0.00639101
-0.000215257
-0.00696541
0.00171119
-0.0026701
-0.00823757
0.00840765
0.000678669
-0.00690035
-0.00987483
-0.0164738
-0.0156398
-0.0222502
-0.0122605
0.000284106
-0.00235687
-0.00179646
0.0140221
-0.00267295
0.00262846
-0.0104796
-0.011458
0.000117253
0.000150052
1.94197e-06
8.15165e-05
-2.77324e-05
-0.0267303
-0.0289357
-0.0330179
9.59427e-06
-9.08281e-05
2.61218e-07
-1.13381e-07
-1.07126e-07
-4.93052e-07
-5.06288e-07
-8.00229e-07
4.56381e-09
-4.5688e-07
-0.00400221
-0.00999879
0.00176636
-0.00249213
-0.0129
-0.000569976
-0.0105714
-0.0108308
0.00224402
0.0137417
0.0110685
0.000396025
6.38905e-05
-0.000114327
6.35839e-05
-8.85918e-06
0.000347176
0.0269767
0.000442524
0.0287988
0.0268629
0.000824388
0.000591592
0.000978572
0.000257724
0.000653213
-0.00031008
0.000736772
2.45077e-05
2.14532e-05
-1.15379e-05
4.66625e-05
-2.8565e-05
2.37249e-05
3.12205e-05
0.0147334
0.00614921
0.00460478
0.000678712
3.50389e-05
4.58496e-05
5.3642e-07
1.09423e-07
1.2413e-07
4.55706e-07
-4.91584e-07
4.81418e-07
5.10333e-07
-1.00049e-06
-1.07294e-06
-0.012879
-0.0148045
-0.00592389
-0.00624916
-0.013535
-0.00724476
-0.00488132
0.00106325
0.00277505
-0.00196524
-0.0113804
-0.00845695
-0.00339098
-0.00875977
-0.00895444
0.0272034
-0.00303602
0.0124853
-0.00566654
-0.00187136
0.00564149
0.0156499
0.0309329
0.016553
-0.00109225
0.00188286
5.29356e-06
4.87777e-06
-7.80028e-07
3.81989e-06
1.2288e-06
5.68853e-08
1.9289e-06
-5.00557e-07
3.25449e-07
2.97537e-06
1.84761e-06
4.81142e-07
-5.10566e-07
5.21953e-06
-3.39901e-06
2.5063e-06
1.495e-05
7.72996e-06
8.72487e-06
1.20297e-07
5.09777e-06
-0.00723063
-0.00161609
-0.00378142
-0.00497957
-0.00772087
-0.0110704
-0.0130047
2.12641e-05
1.55809e-05
2.31268e-05
4.14548e-06
1.31429e-05
0.00289883
0.000887659
0.000702484
-0.00147612
-0.00194257
-0.00102586
-0.00247661
3.56436e-05
-0.00247738
0.0033588
-0.00292108
2.00464e-05
2.42841e-05
0.015131
-0.0267363
0.0011376
0.00098293
0.00128853
0.000908821
0.00132029
0.00350584
-3.35834e-07
0.0018255
0.00200754
0.00142778
0.00151146
0.00193974
0.0014049
-3.6928e-07
-1.01066e-06
-7.57712e-07
1.94635e-08
8.96869e-08
4.71718e-07
3.03923e-07
2.24549e-06
7.00982e-07
1.16801e-06
1.25957e-06
5.02756e-07
4.11031e-07
8.14345e-07
9.11619e-07
-0.0167858
-0.0284175
-0.0129274
-0.0200728
-0.0198238
-0.028851
-0.0227974
-0.0111745
-0.0146615
-0.00214002
-0.00605726
-0.00937634
-0.0129982
-0.00159011
0.000125977
7.38275e-05
0.000250213
0.000150092
0.000188933
0.000130901
4.25581e-05
6.95338e-05
0.000579426
0.00102723
0.00151776
0.000870273
0.00327004
0.00335874
0.00179815
0.00100973
0.00115244
0.00173671
0.00190452
0.00111251
0.00105514
0.00165299
0.0018012
0.000672276
0.000702592
0.000788784
0.000348848
0.000632987
0.00123003
0.000618404
0.000226322
0.000371093
0.00103484
0.00147798
0.00116179
0.00061419
0.000360171
-0.00419324
-0.00942514
0.000170826
0.000231356
0.000412297
0.000463321
0.000136207
6.18378e-05
0.000229435
0.000528868
-0.00392546
-0.000937049
-0.00236253
-0.00658442
0.00210075
0.000731987
0.00519502
-0.00113889
0.00833453
0.0113448
0.0155646
0.0143196
0.00473916
0.0201409
0.0233772
0.0197663
-0.000716394
0.000467524
0.000291859
-0.000141931
-0.000123613
0.00156611
-0.000654641
0.000654724
3.47195e-05
0.000189924
-5.85867e-05
0.000296135
0.000305509
-0.000135877
-0.000106283
-4.51688e-05
-1.84114e-05
0.000134784
0.036797
-0.00151972
-0.00315313
-0.00125916
-0.00316335
0.000132779
-0.000312549
-0.000416066
-0.00211197
-0.00141985
-0.00179444
-0.00214498
6.39185e-05
0.000246847
1.29639e-05
5.46542e-05
3.98333e-05
-2.29068e-05
1.63587e-05
-3.06007e-07
-1.8447e-08
1.12918e-07
-4.64109e-08
-0.00320816
-5.06296e-07
-2.47246e-07
-3.31775e-07
-0.0044807
-0.0044896
-0.00614091
0.00238011
-0.00386076
0.00385082
0.00332721
0.00392141
0.00335415
0.00880493
-4.23229e-08
-0.000416815
-0.000109948
-0.000256661
6.66964e-05
-0.000795882
-0.000740923
-0.000240038
-0.00719485
-0.0180135
-0.000163488
-0.000736214
1.79753e-05
-0.000277667
-0.000423064
-0.000500813
0.00293756
8.5468e-07
1.18163e-06
9.10181e-08
1.01655e-06
7.46104e-07
6.659e-07
-2.59538e-08
1.0206e-06
8.28753e-07
6.30791e-07
-7.98197e-08
1.24892e-06
1.59524e-06
1.74021e-06
-5.06192e-06
3.62841e-06
-1.43503e-05
-5.68277e-06
-1.32856e-05
6.95197e-06
-8.69988e-06
-3.73779e-06
-2.37013e-05
-2.86333e-05
0.00168588
0.00142136
-0.00758126
0.00882064
0.00436961
0.0075001
0.00212237
-0.000331563
2.49347e-07
2.99985e-07
5.6643e-07
3.36426e-07
5.20747e-07
5.20947e-07
-3.45141e-07
9.43986e-08
-0.00428779
1.59877e-06
5.59436e-07
9.57137e-07
1.33837e-06
1.52467e-06
4.89653e-07
2.89899e-07
1.97555e-06
2.91877e-07
-4.86228e-07
-4.30669e-07
-2.89495e-07
-8.61757e-07
-8.29678e-07
1.29629e-07
1.20986e-07
2.93083e-06
-1.02693e-07
4.97962e-07
2.39041e-07
-5.27647e-08
1.54851e-06
1.35388e-06
1.49409e-06
-0.0108831
-0.0280154
-0.0106008
-0.0117909
1.93228e-06
0.00547113
0.00413163
0.00780728
0.00635
0.00349418
-1.19557e-05
3.39462e-06
-3.31407e-05
-1.1078e-05
-0.015051
-0.0230623
-0.00507569
-0.0244194
-0.0074928
-0.0126229
-0.00482195
-0.00736793
-0.0227676
-0.00928191
-0.00319288
-0.000150706
0.0153073
0.000749304
-0.00737538
0.00860285
0.0106238
-0.0131013
-0.0144189
-0.0100711
-0.0201958
-0.0101702
-0.00455385
-0.00110262
-0.000929979
0.00790754
0.00837035
0.00617663
-0.0104699
-0.000429032
-0.00450494
0.00396735
-0.0205728
0.0149516
0.0024532
0.000464748
-0.00298341
-0.0118443
0.00926082
0.00418509
0.000184881
-0.00317823
-0.0120274
0.0124572
0.00171114
0.00695124
0.0118942
0.000118347
-0.000118094
0.00026398
0.000555333
0.000112247
0.0146576
-1.33727e-05
1.21104e-05
0.0104933
0.0231012
0.0234018
0.0275945
-0.0107229
-0.0211019
-0.0166643
-0.010755
-0.0169828
-0.0291508
-0.0198952
-0.00862114
-0.0270135
-8.7865e-06
-6.44782e-05
-4.11247e-06
-1.47786e-05
-3.97387e-05
-3.44722e-06
7.26137e-06
-0.0116987
-0.00695236
-0.00523087
0.0128143
0.00277093
-3.97397e-07
-5.17147e-07
-1.82168e-06
8.89834e-07
1.51413e-06
9.03957e-07
-0.0269996
7.41023e-08
-3.8555e-07
-0.0151435
-0.0196786
-5.74061e-05
1.51813e-05
-0.000154318
-7.72744e-05
-0.000118921
-4.21838e-05
9.04265e-05
6.51392e-05
8.21173e-05
0.018018
-0.0252674
-0.00369602
-0.00627901
-4.28828e-07
-5.05328e-07
-0.000154448
0.0100839
0.0286444
0.0119671
-0.000783268
-0.00146185
2.60605e-05
0.00156962
0.00119116
0.020121
0.000660808
-4.72264e-07
-1.91998e-07
-0.00054054
-0.00578287
-0.011376
-0.0105375
-0.00203087
-1.22654e-07
1.31594e-06
1.05949e-07
1.80182e-06
-1.57025e-06
-4.77992e-08
-9.18475e-07
-2.28549e-06
2.69771e-07
2.23297e-07
2.28071e-07
6.53437e-07
4.02494e-07
-1.44451e-07
-2.12059e-07
-2.37349e-07
5.73043e-09
-4.98227e-07
-7.71025e-07
6.82443e-07
6.18622e-07
1.4553e-06
4.50114e-07
1.67093e-06
8.12974e-07
0.000165689
0.000118033
0.00041603
0.000279364
-0.000155091
0.000172086
0.000103547
-0.00595993
0.00559406
-0.00663039
1.34292e-05
1.59243e-05
0.0217761
0.0217116
0.0275082
0.00959187
1.67176e-05
4.43249e-06
2.54135e-05
3.01444e-05
6.29566e-06
7.09328e-07
2.32763e-07
9.74875e-07
-8.98689e-08
6.2335e-07
0.0174404
0.00607757
0.0081244
0.0193977
1.16387e-06
-0.000245855
-0.000338463
-0.000129029
-2.23531e-05
-0.0193634
-0.00209145
-0.0104371
-0.00243722
0.00290243
0.00524402
0.0104201
0.0273647
7.1935e-06
1.66598e-05
0.00199533
0.000959619
0.00107474
2.13688e-06
5.16698e-06
1.12945e-07
2.16733e-08
6.0582e-07
-1.34103e-06
-2.68472e-06
0.000314617
-0.00011539
-0.000278526
-0.00021576
7.91852e-07
9.0523e-07
8.54373e-07
-4.92076e-05
-5.67368e-06
-5.99943e-05
9.44263e-05
-1.20453e-05
2.04065e-05
6.88732e-05
0.0162709
-0.00723611
0.0191768
-1.03024e-05
0.000156716
0.000128062
-0.0375109
-0.0286864
-0.0156002
-0.0285008
1.05033e-05
2.07332e-05
3.30915e-05
1.07431e-05
2.96005e-05
1.10265e-05
1.21034e-05
1.43606e-05
7.38276e-06
-0.00389518
0.00265734
-0.0110389
0.00175983
-0.00476659
0.00727789
0.0213299
0.00986596
0.00813278
-0.030005
-0.000116319
-2.48208e-05
0.0300405
0.0261549
-0.000224893
-0.000255849
-5.4813e-05
-0.000106655
1.83815e-07
2.48358e-07
-1.12311e-09
2.34407e-07
3.02388e-07
3.27593e-08
1.10329e-07
5.66072e-07
2.45704e-07
-0.0301727
-0.0342302
-0.0163736
-0.0156394
-3.99921e-07
8.77271e-08
0.00160405
0.00229538
0.0224436
-0.0170036
0.0211782
0.0324941
4.66072e-07
7.34997e-05
0.000530631
0.000451295
6.62685e-05
0.0214498
0.000388354
-9.66946e-05
0.000126569
0.0112953
-0.000291045
-0.000422531
-0.000341742
0.000210888
2.08047e-05
0.000291979
0.00054427
0.000101734
1.07423e-07
3.01615e-07
3.06994e-07
2.23551e-07
-0.000199245
-0.000178008
-5.84393e-05
3.26577e-05
-0.0186234
-0.0107305
-0.00427993
-0.0316098
-0.0300316
-0.0314929
0.00749321
0.00871039
0.0241059
0.0241171
5.96288e-06
1.13108e-05
-2.47946e-06
-1.36532e-06
-9.24983e-07
-5.27414e-06
-5.73982e-06
-1.11544e-06
-9.2311e-06
0.0244713
-1.76857e-06
-0.011729
0.00599065
0.00248782
0.001279
-0.0115141
-0.0154036
-0.0306109
-0.00254387
0.00236162
-0.0166431
-0.020613
-0.0236757
0.0220196
0.0251668
0.0212941
-0.0320326
0.00774603
0.029176
0.0275272
-1.41614e-07
2.85066e-06
0.000137813
0.000193723
-0.00298054
-0.000862924
-0.00333186
0.0167651
5.25406e-07
2.93183e-08
-0.000110472
-0.000299222
-0.00029617
-0.000490941
-0.000506029
-0.021353
-0.016756
-0.0334853
-0.0335406
-0.00577823
-0.0153064
-0.0267093
-0.00599654
-0.030262
1.63904e-07
-0.00855477
0.00818278
-0.00845517
-0.0046881
-1.47853e-06
0.00792283
0.00882016
0.0226485
0.0229962
3.13734e-06
-0.00558246
0.00171112
-0.00560681
-0.00668124
-0.0115661
-0.0158085
0.000908555
-0.000304545
-0.00112665
-0.00582404
0.00416035
0.0211251
-0.0112385
-0.0198116
-0.032966
-0.0105608
-0.0102951
-0.0278466
0.0066128
-0.0303558
-0.0348068
-0.0028124
0.000967141
-0.0016415
-0.00163055
8.48234e-07
5.56107e-07
7.26458e-07
8.93825e-07
-0.00507866
-0.00176596
0.00177912
-0.00311639
-0.00146724
-0.0036178
-0.00556494
-6.19515e-07
-1.24114e-06
-3.39839e-07
-1.08963e-06
-4.56597e-07
-1.49019e-06
8.22828e-07
0.000320507
-0.00176255
0.0011019
-0.00120589
0.0021785
0.00377314
0.0047905
-0.00494436
-0.00926335
0.00229419
0.0026493
0.010793
0.000133128
-0.000125101
-0.000161836
-3.76391e-07
3.21787e-07
-8.07846e-07
5.07874e-06
4.19358e-06
3.69576e-05
3.28245e-05
-0.00022934
-0.000253324
-0.000211325
-4.40179e-05
-0.000104681
-5.11507e-05
9.57053e-05
0.000154055
7.04241e-05
1.20318e-05
3.63852e-05
3.6856e-05
3.68875e-05
9.63889e-08
0.000539834
0.00075115
0.00114125
0.000954384
0.000627911
0.000842154
0.0246576
-0.00193769
-0.00188542
0.00759133
0.00903192
-0.000104162
-0.00200707
-0.00359117
-0.0200321
-0.0103814
0.00161426
0.00822668
0.00684522
0.00506852
-0.00301286
-0.014451
0.00614794
-0.0038036
0.00763639
0.00711301
1.75182e-07
1.54696e-07
5.06257e-07
5.18194e-07
1.51661e-07
1.57495e-07
2.11518e-05
4.82562e-05
-3.51402e-05
-0.00245836
0.000390731
0.000307411
0.000381105
0.000300207
-0.00363813
-1.00532e-06
-2.31205e-06
2.46598e-06
2.55725e-06
-4.01404e-07
1.96688e-06
-3.39198e-06
-2.10487e-06
-1.94663e-07
-2.85089e-06
-4.40928e-06
2.04683e-06
-1.79072e-08
-0.00480137
0.0111737
0.0123978
-0.00365811
0.0259673
-0.0154489
-0.00604022
-0.00682028
0.0149469
0.0109968
-3.91825e-07
-8.6043e-07
-1.28634e-06
-2.96255e-07
-1.40181e-06
1.8296e-07
-1.23108e-05
-4.34721e-06
-1.83137e-05
-1.13074e-06
-1.03583e-05
-6.69641e-06
-4.87436e-06
-1.42384e-05
-3.80945e-05
0.00156098
0.00121595
0.000679931
0.00168948
0.001704
0.00132791
0.00169838
0.00108316
0.00102179
0.00104058
-0.0151778
-0.00764955
-0.00853068
0.000605059
-0.000671891
0.000220106
0.00124727
0.000903483
0.00052944
0.000615997
0.00356466
0.00164561
0.00721722
0.00285956
4.67838e-06
4.64191e-06
5.78377e-06
-0.000241441
-0.000287987
-0.000155327
0.0161015
2.212e-06
1.37028e-06
-0.0216287
-0.00429278
-0.014323
-0.00910566
-0.00986717
-0.00455395
-0.00873855
0.0118193
0.0105761
-0.0120281
-0.0145133
-0.0119653
-2.556e-06
-6.59881e-06
-4.70512e-06
-1.64257e-06
-1.21845e-06
-6.1089e-06
-1.9412e-06
-0.0194578
2.65262e-06
-0.0287649
1.38749e-06
8.46533e-06
-0.00930838
-0.0194099
2.98877e-06
0.00442328
-0.000198126
-0.00447015
0.00730374
-0.00827227
-0.0072255
-0.00284512
-0.00776721
-1.28803e-06
0.005961
0.00684803
0.0045396
-1.02762e-06
0.00331363
-0.0141858
0.0142413
0.0165738
0.00065203
7.61068e-05
0.00185024
0.000945295
0.000466335
6.97162e-07
1.11176e-06
1.2166e-06
5.06688e-07
-4.43937e-08
1.57824e-08
-1.87256e-06
-8.62043e-06
3.54267e-06
0.0273526
-6.23348e-07
-0.00236218
2.44191e-07
6.75445e-08
2.28493e-07
2.66357e-07
5.06829e-07
-0.0162626
-0.0221445
-0.0222245
-0.0254312
-0.00100922
2.74471e-07
-0.0133354
-0.0200027
-5.36891e-05
0.000662337
0.00022826
0.000160022
-0.000622181
0.000398799
-0.000284591
-0.000774124
-0.000150541
0.0169652
0.00017292
0.000768906
0.000360113
-0.000851136
0.000736803
0.000714861
0.000684937
0.00028717
0.000436399
0.00287617
-0.00316666
-0.00453903
0.00235658
-0.00882597
-0.00854003
-0.0105839
0.00929033
0.00720377
-0.00960012
-0.0189811
-0.0223015
-0.0160269
-0.0188332
-0.0265169
0.00792084
0.000149818
5.12341e-07
2.86236e-06
6.13635e-06
-9.64383e-06
-2.05813e-06
-2.18943e-06
0.0172286
2.94432e-06
3.46799e-06
8.45133e-06
1.84057e-05
1.40903e-05
-6.79628e-07
8.71976e-07
-0.000108142
-1.16031e-06
4.85476e-06
9.22641e-06
7.28892e-06
8.0297e-05
1.74195e-05
5.87461e-05
-5.29364e-06
-8.16358e-06
8.15443e-05
1.80127e-06
-0.0114347
0.0200912
1.5691e-07
1.87956e-07
0.00980491
0.00549195
0.00450879
0.0156321
0.0198519
0.0165622
0.00594166
-0.00487733
0.0169146
-1.22231e-05
-1.47286e-05
-0.0265633
1.95961e-05
1.51701e-05
8.17738e-06
1.24935e-05
1.77159e-05
0.0297573
-0.000348505
-0.00207164
-0.00155023
-0.0016919
-0.00104596
-0.0040849
-0.00114299
-8.33444e-05
2.03923e-05
7.14996e-05
-1.73924e-05
-4.45539e-06
-7.59341e-05
4.66991e-05
-6.56963e-07
-3.25766e-07
-3.79958e-07
-1.2337e-06
-0.0150485
-0.00896682
-0.00745044
-0.0256251
-0.0229251
-0.00753554
-0.0198096
-0.0255999
-0.00930757
-0.00556091
-0.0110811
-0.0165519
-0.00647225
-0.00684608
-0.017048
-0.00449239
-0.0199793
-0.000450386
-0.000685504
0.000102793
9.36817e-05
2.16176e-05
0.000146117
7.45341e-05
8.9099e-05
0.000333144
0.0012389
0.00100603
-0.00142647
-0.00105051
0.00116945
-0.000305136
-1.97714e-06
-1.06619e-06
-1.41409e-06
-2.32078e-06
-2.82011e-06
-3.25002e-06
-3.51284e-06
0.000483075
-0.000389571
-0.000141909
-0.000284438
-0.000182574
-0.000164279
-0.000352807
-0.000266543
-8.13721e-05
0.0291725
0.0314243
-1.6478e-06
-2.85915e-06
-2.68714e-06
0.00281018
0.000237371
-0.00396519
-0.00756676
5.2059e-05
6.22046e-05
0.000165408
-0.00551821
-1.23333e-06
-1.47319e-06
-6.75064e-07
-4.67148e-07
0.00168053
0.00102631
-0.00186839
0.00225945
-0.000172532
-0.00030523
-0.00711627
-0.00624961
0.00441154
0.00819694
-0.00972818
0.00678526
0.00100462
0.00198277
0.00146949
0.0017666
0.00251401
0.0025598
0.000600152
-3.58433e-06
-2.12455e-06
-6.75987e-06
0.000525072
0.000729079
0.000243701
-7.2486e-05
-2.22008e-05
-0.000430833
-0.00092662
-0.000936364
-0.000729403
-0.00106414
0.000881708
1.66934e-07
-1.19434e-07
6.96825e-08
1.39393e-07
-0.000254444
-0.00017236
-0.00036398
-0.000283601
0.00828823
0.00290921
0.00122657
0.000842979
0.000714525
0.000869279
-5.8676e-08
5.02395e-08
-1.14955e-07
2.01618e-07
0.00264698
0.000266435
1.97862e-05
3.56158e-05
9.59347e-05
0.00134517
-0.000618713
6.24395e-07
0.0353187
0.0279596
0.0232603
6.65198e-07
4.91819e-07
8.56353e-07
5.02193e-07
0.00584106
-0.00665683
-0.00767088
-0.0185317
-0.00733705
-0.00741184
-0.0171819
-0.000170405
-0.000172071
-2.007e-05
0.00248834
0.00100462
3.20248e-06
0.00554262
0.00197389
0.00468486
0.00451857
-0.0193955
-0.0133513
-0.00028394
0.0038245
-0.00165435
-0.000684444
-0.00176316
-0.00131638
-0.00160751
-0.00116453
0.00104194
-8.4523e-05
-0.00260385
-0.00319785
-0.00489835
-0.00188061
-0.00129358
-0.00688093
-0.0031851
0.00272236
0.00272096
1.01173e-06
1.1281e-06
3.28186e-06
1.19263e-06
0.00112907
-0.000261385
0.000906296
0.00114842
-0.0026664
0.00294156
0.00751006
0.00795043
-0.005477
-0.0078324
5.51965e-05
9.32185e-07
3.53101e-07
6.29271e-08
-2.44494e-06
-1.25028e-06
8.24145e-07
-1.60241e-06
0.00524245
1.43108e-06
1.44195e-06
1.50537e-07
1.6213e-07
1.80411e-07
2.22424e-07
5.64873e-08
3.79203e-07
-1.03327e-06
-5.15851e-07
2.12715e-05
-3.15296e-05
9.31604e-06
3.53478e-07
1.1746e-06
0.00138112
0.00166476
0.00136468
0.00184579
0.00724208
-0.00981907
1.61552e-07
2.57011e-05
-4.89414e-06
3.14192e-05
-1.03136e-05
4.17854e-06
4.92806e-06
4.8259e-06
5.4833e-05
5.75022e-05
-0.0179119
-0.0163238
0.00460744
-0.0201911
-0.0168913
-0.0188484
-0.0261066
-0.0359721
-2.28184e-06
-7.82747e-07
-2.13085e-06
0.00446546
0.00379638
-0.00202119
-1.82103e-06
0.00239697
0.00269255
0.00263095
0.00634009
-0.000489084
-0.021662
-0.0177845
-0.00815816
-0.00665093
0.00622687
0.00925488
0.00787281
-0.00926989
0.00719581
0.00696009
0.0281021
0.00288636
-0.0108179
-0.0107146
0.00773309
-0.0239937
-0.0203794
-0.0205441
-0.0210667
-0.00807492
-0.0255584
0.000234256
0.000153289
-0.00062873
0.00100704
-0.0003504
-0.000554339
-0.00283934
-0.00734502
0.00553821
0.00441575
-3.95059e-05
-8.57284e-05
4.83019e-05
-1.70367e-05
-0.00217379
-0.00670444
7.66895e-05
6.36397e-05
5.53546e-05
4.23977e-05
-4.67571e-06
-1.60611e-07
0.0210736
-0.0262599
0.0354794
0.00348731
-0.00384814
-0.0158448
-0.0061362
-0.0155721
0.0178904
0.0145951
0.00831608
0.0151515
0.00286202
-0.00635014
-0.0076915
-0.0123885
-0.0125241
-0.0228255
-0.020114
0.000552042
-0.00399224
-0.00782238
0.0114184
0.0111176
0.00876989
-0.0159537
0.0033448
0.00597585
0.0340677
-0.00670913
0.00519387
0.00225912
-0.0252593
-0.0142432
0.0059784
0.00799542
0.0201487
0.03591
9.77776e-08
1.0944e-06
4.44492e-07
-0.000687056
-0.00963966
-0.0296922
-0.0117426
-0.0248969
-0.0288152
-0.0106365
-0.0140617
0.0123179
0.00560156
0.00682345
0.0100008
-0.00453029
-0.00419185
-0.0154534
-0.0160766
0.00924145
0.00585287
0.00925797
0.000996663
-0.000267383
-4.3213e-05
0.000124916
6.22941e-05
0.000694433
-0.0268345
-0.0292941
1.52154e-06
1.3933e-06
-0.0265956
-0.0283874
0.00248526
0.00129009
0.00223394
0.00228591
0.0219918
0.0153771
7.60269e-05
0.000218134
-3.66954e-05
-0.00020196
0.0075861
0.00646379
0.00519
0.0159541
0.0197839
0.0184722
0.00880859
0.0260793
0.0296232
0.00195856
0.00915983
-0.00110714
-0.00279662
-0.0268911
-3.89446e-05
-3.96086e-05
-0.000119845
-1.2265e-06
-2.25964e-05
2.00848e-06
1.02745e-06
0.02489
0.00284713
-1.25037e-06
0.000118245
7.41933e-05
0.000189022
0.000305914
0.000407487
-6.7625e-05
-3.84555e-07
-0.0145203
8.27498e-06
1.82644e-05
2.76414e-05
1.94222e-05
1.2652e-05
0.0136291
-4.99242e-06
-1.60284e-05
-1.05962e-05
-4.80482e-06
0.0196359
0.000198844
-0.0034982
-5.38612e-08
0.00204447
4.39465e-05
-0.00476113
0.0024064
0.00199558
0.00285931
0.00264111
0.00230333
0.00161152
-0.000336878
-0.000236076
1.67416e-05
1.07578e-06
1.88663e-06
2.25986e-06
4.58557e-05
-0.000363487
0.000648714
-1.17764e-06
2.9074e-07
2.78911e-06
-0.0159699
-0.0177498
0.00110875
0.00126784
-3.83183e-05
-2.38794e-05
-1.6274e-05
-0.00199796
-0.00303512
0.00682556
0.0292296
0.0197593
0.00717411
0.0222899
-0.0268399
-0.0109335
-0.00338066
0.00260341
0.00796834
0.0111832
0.035444
2.37465e-07
0.000252734
0.0256365
0.000146846
0.000289118
0.000371975
0.000358893
9.40658e-08
-3.42744e-07
0.00238131
7.92513e-06
8.73059e-06
7.25802e-06
0.00202717
0.00304446
0.0288695
0.000600696
4.32599e-05
3.43066e-05
1.10885e-05
8.4271e-06
-0.00396126
0.0175563
0.00715253
0.00556549
0.00613283
0.00773298
0.00768165
0.00159786
0.0249732
0.0114401
0.00409996
0.00954029
0.00979326
0.0054026
0.00764876
0.0117668
0.0106589
0.00850338
0.00424261
0.000416111
0.00649903
0.0239978
0.0208914
-0.0096012
-0.00760099
-1.63335e-05
-0.00188828
-4.79281e-05
0.0109696
3.52958e-07
-0.0293908
0.000885506
0.00198907
-0.0152157
-0.00674064
7.63993e-07
-0.000238832
0.00184024
0.00142946
0.00110284
-0.000466972
-1.92945e-06
-1.59172e-06
-0.000613306
-2.13917e-05
-8.11682e-06
-2.90483e-06
3.72626e-07
3.90352e-07
1.33388e-06
0.024667
-9.17978e-08
2.4981e-08
1.71844e-06
0.000129572
-0.000228141
-0.0134529
-0.0160781
0.0124856
-1.50225e-07
0.000295067
0.000281273
0.000474563
-0.000461515
-0.000572373
0.00469776
-0.00787251
-0.000648054
0.00145554
0.0046067
0.00517997
0.0283741
-0.0151403
-0.00381092
-0.00342465
-0.0235104
-0.0206698
0.000135021
2.52247e-06
0.000115166
0.00194493
0.00181508
0.027941
0.0250985
-0.0297672
-1.61889e-05
-0.0168639
0.00105476
0.016323
-1.11548e-07
0.00823122
0.0167777
0.00865952
-0.0200922
0.0152629
0.0127591
0.0331666
0.0254016
0.0313195
0.0286684
1.19066e-05
-3.28835e-06
0.0079684
0.00644617
8.58745e-08
-0.0244803
0.0224373
0.0210938
1.07788e-07
0.00282889
0.00198357
-1.61006e-06
-1.95885e-06
0.034508
0.0127798
-2.88204e-07
0.000167331
-2.219e-05
-9.8965e-07
-4.23034e-08
2.25472e-07
2.65587e-07
-0.034106
-0.0333764
1.08856e-06
9.88254e-07
8.95621e-07
5.24424e-07
-5.16486e-07
-0.0318931
-2.24349e-05
0.000744472
-2.93606e-05
0.00217472
0.00298977
0.00290766
-6.82064e-05
7.03082e-05
1.61342e-05
1.50949e-05
0.000197666
0.000178373
-6.3379e-05
-8.79716e-05
-0.024997
-6.89055e-07
-0.000431627
-0.000888159
-0.000911265
7.65889e-07
-1.03629e-06
-3.89372e-07
0.00133768
0.0196683
3.86104e-07
6.01087e-07
-4.75032e-07
-1.61685e-06
-4.91136e-08
-0.0330314
-0.0323454
0.00322274
0.00725457
5.43957e-08
0.0248907
0.0269391
1.58531e-07
-1.8081e-08
7.80133e-08
-0.000169467
0.0109095
3.76633e-05
4.0272e-05
-1.95225e-07
0.0119536
-8.85966e-05
9.50459e-05
-0.00898285
-0.0103106
3.17574e-07
3.15926e-06
0.000308134
0.000374945
0.00035566
0.000391547
-0.0292514
-0.0305915
-0.0155279
-0.0191172
-0.0164628
-0.0185395
0.00471544
6.97545e-07
9.44621e-07
8.24151e-09
1.77833e-07
-0.0371916
-0.0287398
-0.0339573
-1.73216e-06
-0.0267828
0.0318292
0.0336388
9.01145e-05
1.70657e-05
-0.00022082
-5.58273e-05
-4.1897e-05
-0.000121548
-4.93689e-05
0.00415111
0.0295704
1.46438e-06
0.0275431
0.00762733
0.015343
0.00319742
0.00121734
-0.00279242
1.48251e-07
4.56431e-07
-0.00229295
-0.00273009
-0.0265129
-0.00753874
-0.00807668
0.00553141
0.00472943
-0.0336425
-0.0158957
-0.00233318
0.00664043
-0.0282809
-0.000165261
-0.00162945
6.87535e-06
-0.0313921
0.000105779
-0.00750521
0.010384
0.00217475
0.00882796
0.000189746
5.90303e-05
-0.0160657
-0.000131503
-3.20178e-05
0.0001557
-6.0511e-05
0.000152263
0.00233683
0.00567596
0.00244517
0.0158866
0.00022154
-0.000151318
0.0193437
-0.00383513
-2.14513e-05
0.000341505
0.000249831
-2.15967e-05
-8.5593e-05
-5.03078e-07
0.0179282
0.00964447
0.0119308
0.00312727
0.00941203
0.00642361
3.31903e-06
-1.48737e-06
-0.00450556
-0.0104484
0.0274841
-1.26806e-06
-3.11695e-06
-3.71972e-06
-5.2988e-06
-5.21874e-06
-0.000175727
-0.00010177
1.7242e-06
4.28311e-07
4.81682e-05
0.000272213
8.17316e-05
-1.40124e-05
-0.0092925
-0.00546765
2.47477e-06
3.13246e-06
0.00204169
-6.42092e-05
-0.0072943
-0.00321697
0.00670625
0.0317513
9.56274e-05
0.0020703
-0.0133174
2.14159e-06
3.0267e-06
0.000528626
-0.000316382
-0.000154106
-0.000405763
0.00469288
0.00576584
0.00534695
0.00959751
0.00428317
0.00980652
0.007756
-3.78768e-05
0.000772626
0.00018368
-0.00618021
0.00352286
3.15971e-05
0.000284724
0.0189108
0.00551315
-0.0117152
5.98016e-06
0.0199293
-0.000721748
-0.00077938
-0.000106454
-9.07689e-06
-0.0193934
0.000281626
-9.28655e-06
0.00603258
-0.0154292
-0.00977997
-0.00950252
-0.0169155
-0.0155134
-1.46907e-07
-2.73045e-06
0.0109547
0.0225361
0.0290596
4.20303e-06
0.00878397
-0.000115371
-1.02418e-06
-0.00680138
0.0104734
-0.00253288
-0.00862067
-0.0056168
-0.00757249
1.84045e-06
-2.04622e-06
-1.50804e-06
0.00365925
0.00163182
-1.59783e-06
0.0271652
-1.17942e-06
-2.27025e-06
0.00797819
0.0112278
0.0266591
-2.32979e-06
-2.5166e-06
-0.000383374
0.0202993
0.0192519
0.0146152
0.0159189
-0.000345141
-0.000222243
-0.000536851
-0.0213194
-0.000397913
0.00553287
0.00675852
0.00671193
0.00383991
0.00650361
0.00684575
0.0351325
-0.000295417
-2.42596e-06
-1.87086e-07
-2.87559e-06
-1.93808e-06
0.00458465
0.00335707
0.0169452
-0.000319241
3.77478e-08
0.000458063
8.56321e-07
-2.94421e-06
-0.0255706
-0.0224277
-0.00682818
-0.00495552
1.39538e-06
2.53567e-06
8.53696e-05
0.00328364
0.0047928
-8.49837e-05
0.00011792
-0.00117927
0.000340553
2.9857e-07
0.000512432
-0.0204939
-0.0176047
-0.00328599
-0.00728081
3.02987e-06
1.70053e-05
-0.0198499
-0.0168627
0.0184721
0.00154809
-0.0219699
-0.0213709
-0.0129954
-0.00657733
-0.0128639
2.86013e-06
9.19517e-07
-0.0205545
0.0180799
0.0109885
-0.00123645
-0.00237291
0.014875
0.00889297
0.0162463
-0.00634667
0.00233549
-0.0196817
6.65142e-07
-0.0153747
-0.00181172
0.0152242
0.00947886
0.0153419
0.0048852
-0.0170884
1.90656e-07
-9.31213e-08
3.67003e-05
-0.00983909
-0.0096287
6.8315e-07
0.0186692
0.022189
0.00708387
0.0136855
0.000756105
-0.0271727
0.0282785
0.000505839
0.000833164
-0.020971
0.0189023
0.00329963
0.00323608
-0.0255387
-0.0217111
0.0242704
0.0107058
0.0133043
0.00378609
0.0130718
0.00771279
-0.0329627
-0.00231808
-0.0379352
-0.0368888
0.0136181
0.017144
0.0134169
-0.00068609
0.0113151
0.00542246
-0.000454699
0.0118315
0.0109599
0.0097507
-0.0100616
-0.0062351
-0.0136028
0.0140071
0.0126948
0.0173196
0.00103979
0.0362745
0.0334113
0.0035488
0.0375835
0.0105533
0.0100942
0.00744043
0.00236358
-0.0182757
0.000136861
0.00543365
0.0128012
0.0079505
0.00540343
0.00481209
0.0042468
-0.00877707
0.0122873
0.0235313
0.0127211
0.00859904
0.0107838
-0.00186325
0.00444072
0.0203772
0.0112879
-0.0197359
-0.027798
-4.04147e-05
0.0288342
0.00362424
0.0357176
0.0319483
4.07378e-06
0.000234071
0.0332863
0.00858638
0.0315571
0.00399097
-0.032357
-0.0107013
0.0137158
0.0109953
0.00638019
0.0109703
0.0168712
0.0136039
0.011032
0.0143459
0.0127737
0.0101948
0.0035629
0.00640842
0.00797012
0.0168741

SCALARS S_yy double 1
LOOKUP_TABLE  table6
3.5082e-33
3.5082e-33
0.0220407
0.0182673
3.5082e-33
3.5082e-33
3.5082e-33
-0.0170335
3.5082e-33
3.5082e-33
3.5082e-33
-0.0207938
3.5082e-33
3.5082e-33
3.5082e-33
3.5082e-33
3.5082e-33
0.00056175
0.00589131
3.5082e-33
3.5082e-33
0.0022115
3.5082e-33
3.5082e-33
3.5082e-33
0.00623629
3.5082e-33
3.5082e-33
-1.61017e-08
5.23302e-06
-4.66797e-06
-1.05174e-07
3.55514e-07
-5.56747e-07
1.20522e-05
-2.0604e-05
-0.00125288
0.000846109
-0.000101214
2.10303e-05
4.09184e-07
-4.45668e-07
0.0024797
0.00304368
3.5082e-33
3.5082e-33
3.5082e-33
3.5082e-33
3.5082e-33
3.5082e-33
3.5082e-33
3.5082e-33
3.5082e-33
3.5082e-33
3.5082e-33
3.5082e-33
3.5082e-33
3.5082e-33
3.5082e-33
3.5082e-33
3.5082e-33
3.5082e-33
3.5082e-33
3.5082e-33
3.5082e-33
3.5082e-33
0.0166028
0.0121806
0.00764365
0.00420022
0.00167211
-0.000243752
-0.00105584
-0.000570083
-0.000362588
2.14893e-05
0.00256828
0.00571988
0.0105205
0.0152224
3.5082e-33
3.5082e-33
3.5082e-33
3.5082e-33
3.5082e-33
3.5082e-33
3.5082e-33
3.5082e-33
3.5082e-33
3.5082e-33
3.5082e-33
3.5082e-33
3.5082e-33
3.5082e-33
3.5082e-33
3.5082e-33
3.5082e-33
3.5082e-33
3.5082e-33
3.5082e-33
3.5082e-33
3.5082e-33
3.5082e-33
3.5082e-33
3.5082e-33
3.5082e-33
3.5082e-33
3.5082e-33
3.5082e-33
3.5082e-33
3.5082e-33
3.5082e-33
3.5082e-33
3.5082e-33
3.5082e-33
-0.0137725
-0.00132756
0.0119783
0.0191987
0.00868874
-0.00494811
3.5082e-33
3.5082e-33
3.5082e-33
3.5082e-33
3.5082e-33
3.5082e-33
3.5082e-33
3.5082e-33
3.5082e-33
3.5082e-33
3.5082e-33
3.5082e-33
3.5082e-33
3.5082e-33
3.5082e-33
3.5082e-33
3.5082e-33
3.5082e-33
3.5082e-33
3.5082e-33
3.5082e-33
3.5082e-33
3.5082e-33
3.5082e-33
3.5082e-33
3.5082e-33
3.5082e-33
3.5082e-33
3.5082e-33
3.5082e-33
3.5082e-33
3.5082e-33
3.5082e-33
3.5082e-33
3.5082e-33
3.5082e-33
3.5082e-33
3.5082e-33
3.5082e-33
3.5082e-33
3.5082e-33
3.5082e-33
3.5082e-33
3.5082e-33
3.5082e-33
3.5082e-33
3.5082e-33
3.5082e-33
3.5082e-33
3.5082e-33
-0.0200718
-0.0147372
-0.00896076
-0.00689338
-0.00481885
-0.00455438
-0.00467128
-0.00334925
-0.00380286
-0.0042432
-0.00538917
-0.00918775
-0.0118072
-0.016392
3.5082e-33
3.5082e-33
3.5082e-33
3.5082e-33
3.5082e-33
3.5082e-33
3.5082e-33
3.5082e-33
3.5082e-33
3.5082e-33
3.5082e-33
3.5082e-33
3.5082e-33
3.5082e-33
3.5082e-33
3.5082e-33
3.5082e-33
3.5082e-33
3.5082e-33
3.5082e-33
3.5082e-33
3.5082e-33
3.5082e-33
3.5082e-33
3.5082e-33
3.5082e-33
3.5082e-33
3.5082e-33
3.5082e-33
3.5082e-33
3.5082e-33
3.5082e-33
3.5082e-33
3.5082e-33
3.5082e-33
3.5082e-33
3.5082e-33
3.5082e-33
3.5082e-33
3.5082e-33
3.5082e-33
3.5082e-33
3.5082e-33
3.5082e-33
3.5082e-33
0.000132025
6.47722e-05
-2.45163e-05
-2.59411e-05
-0.00014784
-0.000368795
-0.000180269
-0.000198263
3.90259e-05
5.41986e-06
0.000533155
0.00122904
0.00235199
0.00381735
3.5082e-33
3.5082e-33
3.5082e-33
3.5082e-33
3.5082e-33
3.5082e-33
3.5082e-33
3.5082e-33
3.5082e-33
3.5082e-33
3.5082e-33
3.5082e-33
3.5082e-33
3.5082e-33
3.5082e-33
3.5082e-33
3.5082e-33
3.5082e-33
3.5082e-33
3.5082e-33
3.5082e-33
3.5082e-33
3.5082e-33
3.5082e-33
3.5082e-33
3.5082e-33
3.5082e-33
3.5082e-33
3.5082e-33
3.5082e-33
3.5082e-33
3.5082e-33
3.5082e-33
3.5082e-33
3.5082e-33
3.5082e-33
3.5082e-33
3.5082e-33
3.5082e-33
3.5082e-33
3.5082e-33
3.5082e-33
3.5082e-33
3.5082e-33
3.5082e-33
3.5082e-33
3.5082e-33
3.5082e-33
3.5082e-33
0.00268367
0.00278559
0.00215373
0.00645923
0.00615876
0.0056039
3.5082e-33
3.5082e-33
3.5082e-33
3.5082e-33
3.5082e-33
3.5082e-33
3.5082e-33
3.5082e-33
3.5082e-33
3.5082e-33
3.5082e-33
3.5082e-33
3.5082e-33
3.5082e-33
3.5082e-33
3.5082e-33
3.5082e-33
3.5082e-33
3.5082e-33
3.5082e-33
3.5082e-33
3.5082e-33
3.5082e-33
3.5082e-33
3.5082e-33
3.5082e-33
3.5082e-33
3.5082e-33
3.5082e-33
3.5082e-33
3.5082e-33
3.5082e-33
3.5082e-33
3.5082e-33
3.5082e-33
0.00364414
0.00294422
0.00240757
0.00166569
0.00107291
0.000845306
0.000460147
0.000596957
0.000565385
0.000891775
0.00107101
0.00114515
0.0013476
0.00179552
3.5082e-33
3.5082e-33
3.5082e-33
3.5082e-33
3.5082e-33
3.5082e-33
3.5082e-33
3.5082e-33
3.5082e-33
3.5082e-33
3.5082e-33
3.5082e-33
3.5082e-33
3.5082e-33
3.5082e-33
3.5082e-33
3.5082e-33
3.5082e-33
3.5082e-33
3.5082e-33
3.5082e-33
3.5082e-33
1.34178e-07
3.48169e-07
6.65925e-07
1.33219e-06
1.92853e-06
2.56804e-06
3.64233e-06
3.1198e-06
9.06144e-07
-1.02271e-06
-3.22582e-06
-3.15709e-06
-2.35063e-06
-1.9055e-06
-1.14364e-06
-6.27687e-07
-4.29953e-07
-3.68433e-07
-2.24511e-07
-7.71106e-08
-6.8234e-08
-2.10831e-08
3.35251e-07
1.19457e-07
-7.69142e-08
-4.3118e-07
-4.49406e-07
-2.68001e-07
-1.26869e-07
5.14691e-08
3.03809e-07
4.11842e-07
9.93649e-07
3.70027e-06
9.6323e-06
2.30811e-05
8.84466e-06
3.49924e-06
2.43431e-07
-8.50256e-06
-1.69979e-05
-6.86639e-06
-2.08287e-06
-8.85188e-07
-7.09699e-06
-7.90759e-06
6.46167e-06
4.98146e-06
-0.000207613
-0.000729801
-0.000285643
0.000107167
0.000603458
9.35039e-05
1.6356e-05
2.84694e-06
5.66164e-06
9.90316e-07
-0.00124485
-0.00074745
-0.00031123
-0.000106931
-5.41876e-05
-2.37119e-05
-2.58407e-05
-5.56877e-06
5.29728e-05
0.000265414
0.000618692
0.00108394
5.25263e-05
8.08118e-06
-1.9077e-05
0.000161574
0.00157783
0.00356685
0.00100737
0.000471073
0.000292436
0.000191703
0.000139714
9.36486e-05
6.20734e-05
4.24429e-05
2.75174e-05
1.69795e-05
1.02452e-05
6.84035e-06
4.33493e-06
2.76832e-06
1.91631e-06
1.42546e-06
9.44293e-07
6.9658e-07
5.66379e-07
6.46488e-07
2.48964e-06
5.25101e-06
6.64632e-06
8.25543e-06
9.11295e-06
9.3974e-06
8.47476e-06
7.16307e-06
-8.0201e-07
-2.3271e-06
-4.38671e-06
-5.39778e-06
-6.45027e-06
-7.04173e-06
-6.85792e-06
-6.53717e-06
-5.38575e-06
3.28717e-07
8.49172e-08
-1.24742e-07
-2.62682e-07
-5.23935e-07
-4.13125e-07
-8.832e-07
-1.54792e-06
-2.26149e-06
-3.01735e-06
-4.99656e-06
-7.09369e-06
-9.47739e-06
-1.41785e-05
-2.01358e-05
-2.88837e-05
-4.25859e-05
-6.39226e-05
-8.83599e-05
-0.000131239
-0.000189697
-0.000281578
-0.000383053
-0.000470837
-0.000482428
-0.000411291
-0.000129046
0.000382112
0.00109117
0.00197532
0.00358742
0.00480822
0.00605914
0.00775963
0.00850424
0.0099557
0.0121212
0.012127
0.0129672
0.0119588
0.00986589
0.00692894
0.00384732
0.00318251
0.00466897
0.00574815
0.00550331
0.00551188
0.00526827
0.00460153
0.00451223
0.0045815
0.00521606
0.00569234
0.00549164
0.00531119
0.00424583
0.00371695
0.00569667
0.00852619
0.0115351
0.0103814
0.0113366
0.0111361
0.0100727
0.00845274
0.00741723
0.00645053
0.00561221
0.00447471
0.00329039
0.00274366
0.00196689
0.00117618
0.000810175
0.00045359
0.000254083
0.000150545
4.6275e-05
-2.14144e-05
-6.47861e-05
0.0220281
0.0141923
0.00861623
0.00518878
0.00359079
0.00637496
0.0104211
0.0163055
-0.017019
-0.0133114
-0.0107087
-0.00942224
-0.00860472
-0.00769105
-0.00659477
-0.00536676
-0.004142
-0.0027556
0.0018275
-0.00200487
-0.00415011
-0.00566548
-0.00691729
-0.00807581
-0.00962098
-0.0110639
-0.0129202
-0.0150392
3.5082e-33
3.5082e-33
3.5082e-33
3.5082e-33
3.5082e-33
3.5082e-33
3.5082e-33
3.5082e-33
3.5082e-33
3.5082e-33
3.5082e-33
3.5082e-33
3.5082e-33
3.5082e-33
3.5082e-33
3.5082e-33
3.5082e-33
3.5082e-33
3.5082e-33
3.5082e-33
3.5082e-33
3.5082e-33
3.5082e-33
3.5082e-33
3.5082e-33
3.5082e-33
3.5082e-33
3.5082e-33
3.5082e-33
3.5082e-33
3.5082e-33
3.5082e-33
3.5082e-33
3.5082e-33
3.5082e-33
3.5082e-33
3.5082e-33
3.5082e-33
3.5082e-33
3.5082e-33
3.5082e-33
3.5082e-33
3.5082e-33
3.5082e-33
3.5082e-33
3.5082e-33
3.5082e-33
3.5082e-33
3.5082e-33
3.5082e-33
3.5082e-33
3.5082e-33
3.5082e-33
3.5082e-33
3.5082e-33
3.5082e-33
3.5082e-33
3.5082e-33
3.5082e-33
3.5082e-33
3.5082e-33
3.5082e-33
3.5082e-33
3.5082e-33
3.5082e-33
3.5082e-33
3.5082e-33
3.5082e-33
3.5082e-33
3.5082e-33
3.5082e-33
3.5082e-33
3.5082e-33
3.5082e-33
3.5082e-33
3.5082e-33
3.5082e-33
3.5082e-33
3.5082e-33
3.5082e-33
3.5082e-33
3.5082e-33
3.5082e-33
3.5082e-33
3.5082e-33
3.5082e-33
3.5082e-33
3.5082e-33
3.5082e-33
3.5082e-33
3.5082e-33
3.5082e-33
3.5082e-33
3.5082e-33
3.5082e-33
3.5082e-33
3.5082e-33
3.5082e-33
3.5082e-33
3.5082e-33
3.5082e-33
3.5082e-33
3.5082e-33
3.5082e-33
3.5082e-33
3.5082e-33
3.5082e-33
3.5082e-33
3.5082e-33
3.5082e-33
3.5082e-33
3.5082e-33
3.5082e-33
3.5082e-33
3.5082e-33
3.5082e-33
3.5082e-33
3.5082e-33
3.5082e-33
3.5082e-33
3.5082e-33
3.5082e-33
3.5082e-33
3.5082e-33
3.5082e-33
3.5082e-33
3.5082e-33
3.5082e-33
3.5082e-33
3.5082e-33
3.5082e-33
3.5082e-33
3.5082e-33
3.5082e-33
3.5082e-33
3.5082e-33
3.5082e-33
3.5082e-33
3.5082e-33
3.5082e-33
3.5082e-33
3.5082e-33
3.5082e-33
3.5082e-33
3.5082e-33
3.5082e-33
3.5082e-33
3.5082e-33
3.5082e-33
3.5082e-33
3.5082e-33
3.5082e-33
3.5082e-33
3.5082e-33
3.5082e-33
3.5082e-33
3.5082e-33
3.5082e-33
3.5082e-33
3.5082e-33
3.5082e-33
3.5082e-33
3.5082e-33
3.5082e-33
3.5082e-33
3.5082e-33
3.5082e-33
3.5082e-33
3.5082e-33
3.5082e-33
3.5082e-33
3.5082e-33
3.5082e-33
3.5082e-33
3.5082e-33
3.5082e-33
3.5082e-33
3.5082e-33
3.5082e-33
3.5082e-33
3.5082e-33
3.5082e-33
3.5082e-33
3.5082e-33
3.5082e-33
3.5082e-33
3.5082e-33
3.5082e-33
3.5082e-33
3.5082e-33
3.5082e-33
3.5082e-33
3.5082e-33
3.5082e-33
3.5082e-33
3.5082e-33
3.5082e-33
3.5082e-33
3.5082e-33
3.5082e-33
3.5082e-33
3.5082e-33
3.5082e-33
3.5082e-33
3.5082e-33
3.5082e-33
3.5082e-33
3.5082e-33
3.5082e-33
3.5082e-33
3.5082e-33
3.5082e-33
3.5082e-33
3.5082e-33
3.5082e-33
3.5082e-33
3.5082e-33
3.5082e-33
3.5082e-33
3.5082e-33
3.5082e-33
3.5082e-33
3.5082e-33
3.5082e-33
3.5082e-33
3.5082e-33
3.5082e-33
3.5082e-33
3.5082e-33
3.5082e-33
3.5082e-33
3.5082e-33
3.5082e-33
3.5082e-33
3.5082e-33
3.5082e-33
3.5082e-33
3.5082e-33
3.5082e-33
3.5082e-33
3.5082e-33
3.5082e-33
3.5082e-33
3.5082e-33
3.5082e-33
3.5082e-33
3.5082e-33
3.5082e-33
3.5082e-33
3.5082e-33
3.5082e-33
3.5082e-33
3.5082e-33
3.5082e-33
3.5082e-33
3.5082e-33
3.5082e-33
3.5082e-33
3.5082e-33
3.5082e-33
3.5082e-33
3.5082e-33
3.5082e-33
3.5082e-33
3.5082e-33
3.5082e-33
3.5082e-33
3.5082e-33
3.5082e-33
3.5082e-33
3.5082e-33
3.5082e-33
3.5082e-33
3.5082e-33
3.5082e-33
3.5082e-33
3.5082e-33
3.5082e-33
3.5082e-33
3.5082e-33
3.5082e-33
3.5082e-33
3.5082e-33
3.5082e-33
3.5082e-33
3.5082e-33
3.5082e-33
3.5082e-33
3.5082e-33
3.5082e-33
3.5082e-33
3.5082e-33
3.5082e-33
3.5082e-33
-0.0108335
-0.00902567
-0.00640863
-0.00473426
-0.00268536
-0.00271809
-0.0029967
-0.00385434
-0.00417905
-0.00320849
-0.00533084
-0.0071686
-0.0101674
-0.0142078
0.000780859
2.04401e-05
-0.00188889
-0.00197231
-0.000939903
-0.0010675
-0.00151435
-0.00142049
-0.00265244
-0.00152943
-0.000775134
-0.00124737
-0.000578305
-0.00152478
0.0122647
0.00906537
0.0043091
0.00129347
0.000978647
-0.000586973
-0.000911696
2.14251e-05
-0.000430866
-0.000330092
0.00225961
0.00499556
0.00878367
0.0118746
3.5082e-33
3.5082e-33
3.5082e-33
3.5082e-33
3.5082e-33
3.5082e-33
3.5082e-33
3.5082e-33
3.5082e-33
3.5082e-33
3.5082e-33
3.5082e-33
3.5082e-33
3.5082e-33
3.5082e-33
3.5082e-33
3.5082e-33
3.5082e-33
3.5082e-33
3.5082e-33
3.5082e-33
3.5082e-33
3.5082e-33
3.5082e-33
3.5082e-33
3.5082e-33
3.5082e-33
3.5082e-33
3.5082e-33
3.5082e-33
3.5082e-33
3.5082e-33
3.5082e-33
3.5082e-33
3.5082e-33
3.5082e-33
3.5082e-33
3.5082e-33
3.5082e-33
3.5082e-33
3.5082e-33
3.5082e-33
3.5082e-33
3.5082e-33
3.5082e-33
3.5082e-33
3.5082e-33
3.5082e-33
3.5082e-33
3.5082e-33
3.5082e-33
3.5082e-33
3.5082e-33
3.5082e-33
3.5082e-33
3.5082e-33
3.5082e-33
3.5082e-33
3.5082e-33
3.5082e-33
3.5082e-33
3.5082e-33
3.5082e-33
3.5082e-33
3.5082e-33
3.5082e-33
3.5082e-33
3.5082e-33
3.5082e-33
3.5082e-33
3.5082e-33
3.5082e-33
3.5082e-33
3.5082e-33
3.5082e-33
3.5082e-33
3.5082e-33
3.5082e-33
3.5082e-33
3.5082e-33
3.5082e-33
3.5082e-33
3.5082e-33
3.5082e-33
3.5082e-33
3.5082e-33
3.5082e-33
3.5082e-33
3.5082e-33
3.5082e-33
3.5082e-33
3.5082e-33
3.5082e-33
3.5082e-33
3.5082e-33
3.5082e-33
3.5082e-33
3.5082e-33
3.5082e-33
3.5082e-33
3.5082e-33
3.5082e-33
3.5082e-33
3.5082e-33
3.5082e-33
3.5082e-33
3.5082e-33
3.5082e-33
3.5082e-33
3.5082e-33
3.5082e-33
3.5082e-33
3.5082e-33
3.5082e-33
3.5082e-33
3.5082e-33
3.5082e-33
3.5082e-33
3.5082e-33
3.5082e-33
3.5082e-33
3.5082e-33
3.5082e-33
3.5082e-33
3.5082e-33
3.5082e-33
3.5082e-33
3.5082e-33
3.5082e-33
3.5082e-33
3.5082e-33
3.5082e-33
3.5082e-33
3.5082e-33
3.5082e-33
3.5082e-33
3.5082e-33
3.5082e-33
3.5082e-33
3.5082e-33
3.5082e-33
3.5082e-33
3.5082e-33
3.5082e-33
3.5082e-33
3.5082e-33
3.5082e-33
3.5082e-33
3.5082e-33
3.5082e-33
3.5082e-33
3.5082e-33
3.5082e-33
3.5082e-33
3.5082e-33
3.5082e-33
3.5082e-33
3.5082e-33
3.5082e-33
3.5082e-33
3.5082e-33
3.5082e-33
3.5082e-33
3.5082e-33
3.5082e-33
3.5082e-33
3.5082e-33
3.5082e-33
3.5082e-33
3.5082e-33
3.5082e-33
3.5082e-33
3.5082e-33
3.5082e-33
3.5082e-33
3.5082e-33
3.5082e-33
3.5082e-33
3.5082e-33
3.5082e-33
3.5082e-33
3.5082e-33
3.5082e-33
3.5082e-33
3.5082e-33
3.5082e-33
3.5082e-33
3.5082e-33
3.5082e-33
3.5082e-33
3.5082e-33
3.5082e-33
3.5082e-33
3.5082e-33
3.5082e-33
3.5082e-33
3.5082e-33
3.5082e-33
3.5082e-33
3.5082e-33
3.5082e-33
3.5082e-33
3.5082e-33
3.5082e-33
3.5082e-33
3.5082e-33
3.5082e-33
3.5082e-33
3.5082e-33
3.5082e-33
3.5082e-33
3.5082e-33
3.5082e-33
3.5082e-33
3.5082e-33
3.5082e-33
3.5082e-33
3.5082e-33
3.5082e-33
3.5082e-33
3.5082e-33
3.5082e-33
3.5082e-33
3.5082e-33
3.5082e-33
3.5082e-33
3.5082e-33
3.5082e-33
3.5082e-33
3.5082e-33
3.5082e-33
3.5082e-33
3.5082e-33
3.5082e-33
3.5082e-33
3.5082e-33
3.5082e-33
3.5082e-33
3.5082e-33
3.5082e-33
3.5082e-33
3.5082e-33
3.5082e-33
3.5082e-33
3.5082e-33
3.5082e-33
3.5082e-33
3.5082e-33
3.5082e-33
3.5082e-33
3.5082e-33
3.5082e-33
3.5082e-33
3.5082e-33
3.5082e-33
3.5082e-33
3.5082e-33
3.5082e-33
3.5082e-33
3.5082e-33
3.5082e-33
3.5082e-33
3.5082e-33
3.5082e-33
3.5082e-33
3.5082e-33
3.5082e-33
3.5082e-33
3.5082e-33
3.5082e-33
3.5082e-33
3.5082e-33
3.5082e-33
3.5082e-33
3.5082e-33
3.5082e-33
3.5082e-33
3.5082e-33
3.5082e-33
3.5082e-33
3.5082e-33
3.5082e-33
3.5082e-33
3.5082e-33
3.5082e-33
3.5082e-33
3.5082e-33
3.5082e-33
3.5082e-33
3.5082e-33
3.5082e-33
3.5082e-33
3.5082e-33
3.5082e-33
3.5082e-33
3.5082e-33
3.5082e-33
3.5082e-33
3.5082e-33
3.5082e-33
3.5082e-33
3.5082e-33
3.5082e-33
3.5082e-33
3.5082e-33
3.5082e-33
3.5082e-33
3.5082e-33
3.5082e-33
3.5082e-33
3.5082e-33
3.5082e-33
3.5082e-33
3.5082e-33
3.5082e-33
3.5082e-33
3.5082e-33
3.5082e-33
3.5082e-33
3.5082e-33
3.5082e-33
3.5082e-33
3.5082e-33
3.5082e-33
3.5082e-33
3.5082e-33
3.5082e-33
3.5082e-33
3.5082e-33
3.5082e-33
3.5082e-33
3.5082e-33
3.5082e-33
3.5082e-33
3.5082e-33
3.5082e-33
3.5082e-33
3.5082e-33
3.5082e-33
3.5082e-33
3.5082e-33
3.5082e-33
3.5082e-33
3.5082e-33
3.5082e-33
3.5082e-33
3.5082e-33
3.5082e-33
3.5082e-33
3.5082e-33
3.5082e-33
3.5082e-33
3.5082e-33
3.5082e-33
3.5082e-33
3.5082e-33
3.5082e-33
3.5082e-33
3.5082e-33
3.5082e-33
3.5082e-33
3.5082e-33
3.5082e-33
3.5082e-33
3.5082e-33
3.5082e-33
3.5082e-33
3.5082e-33
3.5082e-33
3.5082e-33
3.5082e-33
3.5082e-33
3.5082e-33
3.5082e-33
3.5082e-33
3.5082e-33
3.5082e-33
3.5082e-33
3.5082e-33
3.5082e-33
3.5082e-33
3.5082e-33
3.5082e-33
3.5082e-33
3.5082e-33
3.5082e-33
3.5082e-33
3.5082e-33
3.5082e-33
3.5082e-33
3.5082e-33
3.5082e-33
3.5082e-33
3.5082e-33
3.5082e-33
3.5082e-33
3.5082e-33
3.5082e-33
3.5082e-33
3.5082e-33
3.5082e-33
3.5082e-33
3.5082e-33
3.5082e-33
3.5082e-33
3.5082e-33
3.5082e-33
3.5082e-33
3.5082e-33
3.5082e-33
3.5082e-33
3.5082e-33
3.5082e-33
3.5082e-33
3.5082e-33
3.5082e-33
3.5082e-33
3.5082e-33
3.5082e-33
3.5082e-33
3.5082e-33
3.5082e-33
3.5082e-33
3.5082e-33
3.5082e-33
3.5082e-33
3.5082e-33
3.5082e-33
3.5082e-33
3.5082e-33
3.5082e-33
3.5082e-33
3.5082e-33
3.5082e-33
3.5082e-33
3.5082e-33
3.5082e-33
3.5082e-33
3.5082e-33
3.5082e-33
3.5082e-33
3.5082e-33
3.5082e-33
3.5082e-33
3.5082e-33
3.5082e-33
3.5082e-33
3.5082e-33
3.5082e-33
3.5082e-33
3.5082e-33
3.5082e-33
3.5082e-33
3.5082e-33
3.5082e-33
3.5082e-33
3.5082e-33
3.5082e-33
3.5082e-33
3.5082e-33
3.5082e-33
3.5082e-33
3.5082e-33
3.5082e-33
3.5082e-33
3.5082e-33
3.5082e-33
3.5082e-33
3.5082e-33
3.5082e-33
3.5082e-33
3.5082e-33
3.5082e-33
3.5082e-33
3.5082e-33
3.5082e-33
3.5082e-33
3.5082e-33
3.5082e-33
3.5082e-33
3.5082e-33
3.5082e-33
3.5082e-33
3.5082e-33
3.5082e-33
3.5082e-33
3.5082e-33
3.5082e-33
3.5082e-33
3.5082e-33
3.5082e-33
3.5082e-33
3.5082e-33
3.5082e-33
3.5082e-33
3.5082e-33
3.5082e-33
3.5082e-33
3.5082e-33
3.5082e-33
3.5082e-33
3.5082e-33
3.5082e-33
3.5082e-33
3.5082e-33
3.5082e-33
3.5082e-33
3.5082e-33
3.5082e-33
3.5082e-33
3.5082e-33
3.5082e-33
3.5082e-33
3.5082e-33
3.5082e-33
3.5082e-33
3.5082e-33
3.5082e-33
3.5082e-33
3.5082e-33
3.5082e-33
3.5082e-33
3.5082e-33
3.5082e-33
3.5082e-33
3.5082e-33
3.5082e-33
3.5082e-33
3.5082e-33
3.5082e-33
3.5082e-33
3.5082e-33
3.5082e-33
3.5082e-33
3.5082e-33
3.5082e-33
3.5082e-33
3.5082e-33
3.5082e-33
3.5082e-33
3.5082e-33
3.5082e-33
3.5082e-33
3.5082e-33
3.5082e-33
3.5082e-33
3.5082e-33
3.5082e-33
3.5082e-33
3.5082e-33
3.5082e-33
3.5082e-33
3.5082e-33
3.5082e-33
3.5082e-33
3.5082e-33
3.5082e-33
3.5082e-33
3.5082e-33
3.5082e-33
3.5082e-33
3.5082e-33
3.5082e-33
3.5082e-33
3.5082e-33
3.5082e-33
3.5082e-33
3.5082e-33
3.5082e-33
3.5082e-33
3.5082e-33
3.5082e-33
3.5082e-33
3.5082e-33
3.5082e-33
3.5082e-33
3.5082e-33
3.5082e-33
3.5082e-33
3.5082e-33
3.5082e-33
3.5082e-33
3.5082e-33
3.5082e-33
3.5082e-33
3.5082e-33
3.5082e-33
3.5082e-33
3.5082e-33
3.5082e-33
3.5082e-33
3.5082e-33
3.5082e-33
3.5082e-33
3.5082e-33
3.5082e-33
3.5082e-33
3.5082e-33
3.5082e-33
3.5082e-33
3.5082e-33
3.5082e-33
3.5082e-33
3.5082e-33
3.5082e-33
3.5082e-33
3.5082e-33
3.5082e-33
3.5082e-33
3.5082e-33
3.5082e-33
3.5082e-33
3.5082e-33
3.5082e-33
3.5082e-33
3.5082e-33
3.5082e-33
3.5082e-33
3.5082e-33
3.5082e-33
3.5082e-33
3.5082e-33
3.5082e-33
3.5082e-33
3.5082e-33
3.5082e-33
3.5082e-33
3.5082e-33
3.5082e-33
3.5082e-33
3.5082e-33
3.5082e-33
3.5082e-33
3.5082e-33
3.5082e-33
3.5082e-33
3.5082e-33
3.5082e-33
3.5082e-33
3.5082e-33
0.00225343
0.00177045
0.00117375
0.00113774
0.000998007
0.000998607
0.00104422
0.00107808
0.00126389
0.00148328
0.00203417
0.00236118
0.003643
0.00454409
0.00192138
0.00147422
0.000794879
0.000838385
0.000894344
0.000955144
0.00095187
0.00118781
0.00120523
0.00149016
0.0018164
0.00197958
0.00377545
0.00487025
0.00141914
0.000842456
0.000363227
0.000540043
0.000400666
0.000659355
0.000471936
0.000557741
0.000768622
0.000955067
0.00163563
0.00196848
0.00343187
0.00555746
-2.93954e-08
1.99335e-07
3.88292e-07
7.84448e-07
1.23052e-06
2.05197e-06
2.8892e-06
-2.3961e-07
4.01547e-08
1.44257e-07
1.82742e-07
4.14725e-07
8.00835e-07
1.03121e-06
-1.97063e-07
-1.2132e-07
-1.38882e-07
-2.56128e-07
-2.84125e-07
-3.13088e-07
-3.37819e-07
-3.08704e-07
-3.94502e-07
-4.50467e-07
-8.16e-07
-1.0827e-06
-1.07634e-06
-2.10473e-06
3.21656e-07
7.88004e-08
-7.86433e-08
-4.06633e-07
2.23978e-07
1.01191e-08
-1.81608e-07
-2.52758e-07
-9.06059e-08
-5.90892e-08
-2.44416e-07
-2.02069e-07
9.44255e-07
2.29147e-06
5.67012e-06
1.20862e-05
2.64854e-07
9.68853e-07
2.10849e-06
4.21237e-06
-1.7067e-07
-7.04455e-07
-1.29185e-06
-4.02124e-06
-7.67043e-07
-2.11897e-06
-5.7326e-06
-1.16768e-05
-4.35329e-07
-7.24853e-07
7.47093e-07
2.0388e-05
-0.000155679
-5.9455e-06
-7.69651e-07
-6.76416e-06
-1.04451e-06
-4.75896e-05
8.09527e-08
5.70894e-06
-8.8399e-07
8.70625e-06
-2.33868e-05
8.72225e-06
1.01128e-05
2.24823e-05
4.6105e-05
0.000140534
-0.00090052
-0.000591686
-0.000280422
-7.78402e-05
-0.000404658
-0.000279569
-0.000158874
-5.74178e-05
6.05767e-05
6.07413e-05
-6.85901e-05
-3.73154e-05
0.000613198
0.000316486
0.000126686
6.5714e-06
-5.88316e-07
-6.47639e-08
1.33571e-07
3.03496e-07
2.20122e-06
7.28542e-07
2.58573e-06
3.43681e-06
1.15795e-06
4.96451e-06
0.000799555
0.000994487
0.000966967
0.000900762
9.69106e-06
8.82373e-06
0.000131848
0.00038734
0.00102741
0.00101002
0.00126521
0.00168634
0.00171519
0.00261052
7.13269e-06
8.23469e-06
7.04484e-06
3.7428e-06
1.56244e-06
6.22374e-06
0.000948016
-1.15386e-05
2.20725e-05
8.12649e-05
6.39113e-06
0.000106103
0.000240272
0.000725591
0.00014738
5.11984e-05
3.33029e-05
1.5146e-05
9.2541e-06
3.13383e-06
1.90441e-06
1.27305e-06
0.000350734
5.53232e-06
1.52806e-06
3.54251e-05
0.000647325
0.000159689
3.92498e-05
0.000103346
1.3391e-05
2.228e-06
0.000437905
-4.0817e-06
3.84383e-06
2.80735e-06
9.22636e-07
3.74482e-07
5.87385e-06
-2.95024e-07
0.00104814
0.0010319
0.00184138
6.05577e-06
0.00057883
9.29915e-06
0.00110006
0.00115498
-3.74302e-06
-7.87704e-06
0.00128736
9.05392e-06
8.94816e-06
0.00113749
9.84371e-06
0.000778486
0.00105741
0.00105046
7.49421e-06
0.000772007
-9.94053e-06
0.000752929
4.85423e-06
1.36793e-05
7.79039e-05
3.81029e-05
2.66724e-05
0.000102395
1.03226e-06
0.000148479
0.000206545
5.4507e-05
0.000303202
0.000548153
1.90771e-05
9.51882e-06
3.21517e-06
7.33558e-06
3.84669e-06
3.49749e-05
0.000567744
0.000303679
7.6044e-05
0.000141682
0.000335601
2.19533e-05
4.97214e-06
2.85148e-06
6.63051e-06
-3.46265e-07
0.000691215
-3.43024e-06
7.70811e-06
0.00108705
0.00111091
9.71727e-06
0.000772557
9.86895e-06
0.00096524
0.000896401
8.94948e-06
0.00130254
5.48807e-06
0.00103807
0.00126515
-3.75481e-06
8.24947e-06
0.000233932
0.00109671
0.000105172
6.12711e-05
7.66146e-05
1.13806e-05
4.0006e-05
1.57258e-05
0.000150526
3.02115e-05
2.31993e-05
9.50573e-06
6.29338e-06
0.000232867
7.82335e-06
0.000327743
0.000450546
0.000832115
-2.05416e-06
0.000595993
0.000161737
9.24159e-05
0.000567991
5.95046e-05
0.000278614
-1.2895e-06
5.47649e-06
-4.4665e-08
3.34576e-06
7.4355e-06
-5.24362e-07
0.000996476
0.000999931
6.94054e-06
1.17483e-05
0.00105156
0.00100888
8.95105e-06
1.11011e-05
0.000956277
0.000851166
9.28464e-05
0.000448618
0.000962866
9.09842e-06
0.000731883
4.49507e-06
9.00288e-06
2.91315e-05
2.05723e-05
9.99281e-05
0.000142704
3.77634e-05
6.25718e-05
5.28195e-05
1.14991e-05
0.000499577
0.000341648
0.000189676
0.000260984
1.52035e-05
-1.74003e-06
0.000964502
1.05085e-06
7.76024e-07
0.000447725
3.01297e-05
0.000125948
7.16606e-05
0.000192243
0.00153055
5.50265e-06
2.1554e-06
-1.46478e-06
7.64032e-06
0.000842221
0.000928047
0.000908732
0.000819554
0.00074399
1.15068e-05
1.31094e-05
1.10839e-05
1.84584e-06
2.97953e-06
2.57317e-05
3.70596e-05
5.31119e-05
1.21674e-05
2.09105e-05
0.000139488
0.000101075
0.000536998
0.000218606
7.42517e-05
1.56098e-05
0.000413311
0.000324172
6.57283e-06
4.79726e-05
1.14086e-05
0.000299053
0.000101725
0.000166883
0.000609056
5.72716e-06
4.06353e-06
1.74072e-06
9.15619e-06
0.000830934
0.000736771
0.000761923
9.09373e-06
1.31861e-05
3.62883e-06
1.16221e-05
3.44136e-05
2.63465e-05
4.70554e-05
1.86915e-05
1.60249e-05
7.16003e-05
0.000213074
0.000514673
0.000313508
9.43031e-06
6.74722e-06
2.04501e-05
3.24654e-05
0.000432959
0.00075897
3.85749e-06
1.18387e-05
2.4457e-05
1.97429e-05
1.54796e-05
0.000650548
0.000603438
2.4012e-06
2.02065e-05
9.08631e-07
0.000812115
8.45863e-07
-4.29772e-07
-1.35077e-06
-2.5378e-06
-3.57198e-06
-4.2847e-06
-4.84694e-06
-4.56449e-06
-4.3754e-06
-3.70087e-06
-3.10505e-08
-2.14627e-07
-2.53857e-07
-5.67412e-07
-1.13157e-06
-1.4546e-07
-5.15484e-07
-9.24806e-07
-4.92463e-07
3.35108e-07
8.44541e-07
1.57864e-06
2.24598e-06
2.76599e-06
2.70038e-06
2.93021e-06
3.09741e-06
2.3684e-06
7.35191e-07
1.9644e-06
3.6064e-06
5.22144e-06
6.03953e-06
6.78584e-06
7.11457e-06
5.88725e-06
5.2806e-06
-3.29172e-06
-1.16633e-06
-2.63794e-06
-3.8489e-07
-7.47804e-07
8.76753e-06
-4.87989e-06
-3.19e-06
-4.29004e-06
-0.000344458
-1.64089e-06
-2.395e-06
1.81627e-06
3.91169e-06
8.03442e-06
-1.06729e-07
2.63333e-07
-6.9342e-07
-1.57134e-06
-4.00672e-06
-6.39874e-06
-7.0033e-06
-6.84663e-06
-6.59767e-06
-5.78575e-06
-4.88635e-06
-3.13221e-06
-1.40903e-06
-7.13374e-06
5.63099e-06
-1.28318e-05
-6.17068e-06
-1.47933e-05
-2.05009e-05
-2.20529e-05
-3.68146e-05
-3.02383e-05
-0.00010737
-4.6183e-05
-0.000602808
-6.66509e-05
-8.79077e-05
-0.000131429
-0.000174471
-0.000227572
-0.000432318
-0.000426541
-0.000431279
-0.0002887
0.000105098
0.000671474
0.00136941
0.00239443
0.00368196
0.00488877
0.00703026
0.00776076
0.00835434
0.010261
0.0109851
0.0130221
0.0109332
0.00900618
0.00694358
0.00503767
0.00427585
0.00418939
0.00438159
0.0049738
0.00505613
0.00503039
0.00464048
7.39788e-05
0.00015639
0.000319346
0.000598825
0.000922146
0.00144636
0.00237258
0.00306938
0.0038445
0.00465787
0.00531577
0.00593719
0.00694665
0.00826707
0.00910443
0.00918796
0.00973809
0.0117174
0.0103178
0.00659827
0.00469123
-0.00111536
-0.000880708
-0.000512426
-0.000202289
-3.73307e-06
-1.45967e-06
-2.69432e-06
-1.13612e-06
-6.29167e-07
-5.08406e-06
8.41126e-07
1.06798e-07
0.00461768
0.00345077
-7.12024e-05
-1.18183e-06
-8.59299e-06
-2.44089e-05
0.00908355
0.0100844
-0.000492826
2.07468e-06
-3.67293e-05
-0.000197307
-0.000237149
0.0100329
0.00886313
0.0048747
-6.77553e-06
-4.74996e-06
-0.000590923
-0.000271377
0.000319056
0.00160806
0.00255849
0.00513997
0.0060301
0.00363789
0.00386375
0.00483258
0.000158623
0.000705178
0.00152099
0.00328008
0.00472117
0.00615326
0.00722851
-8.14904e-05
-1.61171e-05
0.00909077
0.00765189
0.00533582
0.0050022
1.2773e-06
-8.38291e-06
-7.02254e-06
-7.82439e-06
-7.62062e-06
-5.08388e-06
-3.8335e-06
-9.29708e-06
-4.5719e-05
-6.98229e-05
-0.000101785
-0.000141656
-0.00039854
-0.000306034
0.00061367
0.0011384
0.00330687
0.00651604
0.0112621
0.00398948
0.00461321
0.00948878
0.0116019
0.00721364
0.00492487
0.00509552
-0.000523355
0.00022999
0.00258334
0.00768703
0.00860015
0.0095451
0.00965715
0.00920168
0.0052416
-0.000560223
-7.63175e-05
-6.42926e-06
2.22913e-06
-0.0007644
-0.000889563
6.31615e-06
-0.00020012
-5.44222e-05
-0.000110262
-0.000504939
-2.202e-05
-4.61665e-06
-1.68532e-06
0.0053626
-8.55769e-07
-0.000300802
-5.93666e-06
-0.000519899
-4.43439e-07
0.00463425
-0.000640093
0.00675415
0.00679302
0.00788064
0.00341253
0.00757787
0.00755797
0.00620401
0.00556759
0.00613717
-1.37747e-05
0.00750754
0.00334157
0.00429258
0.00853429
0.00687513
0.00550037
0.00392955
0.00779846
0.00506862
0.00614303
0.00558619
0.00483464
0.00683231
0.00797264
0.00443443
0.00423082
0.00382442
0.00332291
0.00308615
0.00213138
0.00241659
0.00162887
0.00170854
0.000914453
0.000633179
-0.000118306
0.000448812
-8.34486e-05
-0.000540256
9.45695e-05
-8.97104e-06
-6.08333e-05
0.000190045
-0.000334171
-0.000439203
-6.77666e-06
-0.000279944
-3.9802e-05
-0.000585432
-1.00867e-05
-0.000162338
-1.94441e-05
-8.25085e-06
-4.51333e-05
-0.000366478
-0.000230978
-8.96096e-06
-8.65963e-06
-2.77073e-05
-0.00048506
-7.45746e-06
0.00448588
-0.000176237
-3.18626e-06
-2.51021e-06
-0.000204286
-7.26217e-06
-0.000854983
-6.73699e-07
-7.68903e-06
-0.000210254
-0.000110063
-6.99712e-05
-0.000407136
-1.86388e-06
-5.76707e-06
-2.1296e-06
-7.50534e-06
-0.00033865
-2.25e-05
-0.000291111
-0.000365163
-0.000594174
-3.341e-05
-0.000158632
-1.04691e-05
-8.90703e-06
-0.000617282
-0.000697866
6.80878e-05
0.000307422
0.000479801
0.000836978
-0.000414772
0.000989467
0.00202458
0.00166319
0.00254004
0.00266749
0.00304001
0.00541871
0.00580049
0.00363315
0.00371463
0.00394076
-5.90372e-06
0.00460718
0.00472288
0.00562104
0.00592711
0.00609019
0.00576283
0.00661144
0.00680606
0.00672103
0.00639501
0.00668976
0.00614738
0.00576054
0.00611705
0.00511495
0.00566277
0.00426989
0.00381598
0.00576999
0.00331235
0.00305018
-0.00052516
0.00400921
0.00421959
-0.000156894
-0.000107721
-0.000272044
-7.26244e-05
-4.78521e-05
-0.000769359
-0.000745343
-1.72818e-05
-1.19284e-05
-0.000208796
-1.09454e-05
-1.11816e-05
-4.38566e-06
-0.000335707
-8.73855e-06
-0.000694624
-0.000414181
-2.12111e-06
-0.000932891
-5.16287e-06
-9.12373e-07
-0.00059808
-4.62724e-05
-0.000189257
-0.000126356
-0.000311422
-6.9869e-06
-2.58289e-06
-4.51114e-06
-9.06188e-06
-0.000497735
-0.000266686
-3.49713e-05
-0.000499364
-1.25242e-05
-0.000105821
-0.000515907
-0.000394935
-9.06164e-06
0.00057592
-0.000843045
3.06377e-05
-0.000707901
0.000402331
0.000861245
-4.84827e-05
0.00116922
-0.000610238
0.00189646
0.00146117
0.00267197
0.0021617
0.00291349
0.00327804
0.00331834
0.00353799
0.00405984
0.00430603
0.00478687
0.0045834
0.00486258
0.00444456
0.00528115
0.0050358
0.00489932
0.00510584
0.00515298
0.00462719
0.00512277
0.00489975
0.00470095
0.00401251
0.00311634
0.00378839
0.00356276
-1.45277e-05
4.34899e-07
-0.000117391
-0.000784306
-0.000788458
-0.000301164
-0.000165842
-0.000815866
-2.23097e-05
-7.77983e-05
-0.000233352
-1.71377e-05
-1.31575e-05
-0.000424169
-1.02959e-05
-0.000733507
-0.000794829
-0.000891426
-4.52261e-06
-0.00044999
-0.000675435
-8.58704e-05
-0.000164777
-0.000225173
-0.000610913
-7.6754e-06
-4.88478e-06
-3.6302e-06
-1.03585e-05
-0.000636462
-0.000398025
-0.000265094
-0.000568921
0.000165805
-4.74377e-05
5.90735e-05
-0.00066449
-0.000545083
-0.000857831
-0.000783031
-1.56147e-05
0.000848514
0.000438444
0.000919467
0.00135795
-0.000402484
0.00220262
0.00151198
0.00313856
0.00224306
0.00305713
0.00349385
0.00319602
0.00293918
0.00404307
0.00353581
0.0041826
0.00375225
0.00446053
0.00348943
0.003994
0.00365661
0.00433792
0.0041129
0.00457716
0.0035198
0.00310425
-3.23635e-05
-0.000809252
-0.000962532
-6.53951e-05
-0.000100184
-0.000851834
-2.07142e-05
-1.61661e-05
-1.36868e-05
-0.00076474
-0.000861023
-4.94134e-06
-0.00102303
-8.36075e-06
-0.000740537
-0.000594561
-4.26253e-05
0.00449012
-2.77094e-06
-0.000659742
-0.000433202
-0.000738172
-0.000334033
-0.000917539
8.78721e-06
5.5692e-05
-0.000790684
0.000518351
0.000536483
-3.00088e-05
0.00103828
0.00122488
-0.000927347
0.00160023
0.0013467
0.00208027
0.00238119
0.00265356
0.00293088
0.00280793
0.00318081
0.00322869
0.00323126
0.00395708
0.00363526
0.00321444
0.00407017
0.00371607
0.00328693
0.0035604
0.00325943
0.00268203
-0.000926023
-0.000965266
-0.00100556
-0.000679628
-2.04653e-05
-3.04408e-06
-0.000883253
-1.05376e-05
-0.00109436
-1.97016e-05
-1.39086e-05
-2.0209e-05
0.00328069
-0.0005222
-0.000266065
-0.000548882
-0.000725948
-0.000209341
0.000148533
-0.00103224
0.000371318
-0.000941984
0.000597663
0.000774853
0.00109372
0.00141945
0.00169959
0.00172775
0.0022879
0.00238665
0.00290284
0.00280216
0.00313391
0.00323613
0.00317794
0.00319719
0.00305158
0.00352583
-0.00107231
-0.000807334
-0.00112499
-0.00104519
0.00283642
-0.000980391
-2.4202e-05
-0.000979737
-0.000841065
-4.32571e-06
-0.000759052
-0.0010385
0.00268481
-0.000294095
0.00439252
-0.00098432
-0.000796454
-0.00100162
0.0126766
0.012415
0.00732854
0.00385323
0.00229523
-0.000258407
-0.000155727
0.00039795
0.000764342
0.00140329
0.0036701
0.00759195
0.0115688
0.0134858
0.0107981
0.00816311
0.00651858
0.00367851
0.00309793
0.00189804
0.000928778
0.00142678
0.00156991
0.00246426
0.00316158
0.00572512
0.0075451
0.0113192
0.0069531
0.00564244
0.00577058
0.00550257
0.00355862
0.00305442
0.00233148
0.00208691
0.00249824
0.00335481
0.00402839
0.00501806
0.00581324
0.00747922
0.00439473
0.00506882
0.00556923
0.005247
0.00468399
0.00418257
0.00397095
0.00364619
0.00392107
0.00426371
0.00507296
0.00469624
0.00547397
0.00494751
2.17272e-05
-1.5087e-06
-2.39323e-05
-3.44482e-05
1.09548e-05
5.24936e-05
1.04114e-05
-1.37693e-05
8.30794e-05
9.10513e-05
9.76045e-05
5.72017e-05
0.000133589
0.000188332
0.000200729
0.000143501
0.00077493
0.000486473
0.000401002
0.000246986
0.00168498
0.00084906
0.00065747
0.000511059
0.00218932
0.000906245
0.000857787
0.000751557
0.00221468
0.00111454
0.00120813
0.00127411
0.00157196
0.000771873
0.00110864
0.00203567
7.8759e-07
0.000438255
0.000904655
0.00193023
-0.00186677
-5.0105e-05
0.00135412
0.00253558
-0.00283201
-0.000219788
0.00157608
0.00357055
-0.00381044
-0.000704597
0.00136215
0.00402182
-0.00460899
-0.00178665
0.00140881
0.00471789
-0.00538661
-0.00191504
0.00173639
0.00561354
-0.00611088
-0.00302167
0.00244991
0.00648386
-0.00666865
-0.00211922
0.00188938
0.00734955
-0.0071041
-0.00250091
0.00219182
0.00804757
-0.0100346
-0.00263363
0.00365358
0.00847113
-0.00890566
-0.00335296
0.00195671
0.00800276
-0.0113327
-0.00256575
0.00261423
0.0079165
-0.00593906
-0.00229481
0.00287763
0.00650983
0.00542634
0.00295002
0.00406293
0.00530185
0.016089
0.00886481
0.00540185
0.00436407
0.0122656
0.00754678
0.00564233
0.00445938
0.00276343
0.00245685
0.00360717
0.00518082
-0.00764717
-0.00212606
0.00218431
0.00688641
-0.0126043
-0.00378651
0.00326167
0.00813216
-0.00936791
-0.00527275
0.00222208
0.00823592
-0.0100198
-0.00269694
0.00171844
0.00576174
-0.00768
-0.00337294
0.00301849
0.00768019
-0.00780299
-0.00177282
0.00235182
0.00683168
-0.0062617
-0.0019685
0.00242004
0.00750615
-0.005385
-0.00181031
0.00181452
0.00580779
-0.00457996
-0.00148309
0.00159383
0.00486872
-0.00332532
-0.000864145
0.00153581
0.00346875
-0.00211296
-7.93396e-05
0.00185234
0.00350824
0.000467099
0.0014605
0.00148913
0.00242952
0.00323771
0.00184983
0.00148698
0.00171013
0.00483512
0.00190489
0.00150476
0.00104507
0.00515392
0.00248941
0.00126576
0.000490194
0.00469205
0.00236437
0.000931794
8.02969e-05
0.00360452
0.00182043
0.000675773
-7.33779e-05
0.00148214
0.00112894
0.000423744
-0.000171172
0.000755349
0.000658964
0.000189497
-0.000208118
0.000391093
0.000342661
8.93407e-05
-0.000184811
0.000247916
0.000199639
3.41904e-06
-0.000151647
0.000162135
0.000109151
-3.15446e-05
-0.000112194
0.000106423
5.18917e-05
-1.34114e-05
-7.62466e-05
6.79979e-05
3.28099e-05
-1.53147e-05
-5.7065e-05
4.77795e-05
2.24166e-05
-1.23343e-05
-4.29842e-05
3.03477e-05
1.36436e-05
-1.19586e-05
-3.03829e-05
1.94895e-05
6.27975e-06
-8.66396e-06
-2.18323e-05
1.15344e-05
6.43674e-06
-9.38118e-06
-1.61053e-05
6.30897e-06
2.10009e-06
-7.03058e-06
-1.18326e-05
3.92484e-06
1.48975e-06
-3.78806e-06
-7.07526e-06
2.71052e-06
3.10775e-07
-2.25712e-06
-5.29077e-06
2.09011e-06
-3.34809e-07
-1.78079e-06
-3.62727e-06
1.42442e-06
2.85361e-07
-1.0277e-06
-2.32805e-06
1.06153e-06
-2.58547e-07
-9.15641e-07
-1.60926e-06
5.8916e-07
9.52567e-09
-5.74431e-07
-1.21152e-06
5.45976e-07
1.90412e-07
-4.92131e-07
-6.77744e-07
3.61711e-07
1.72895e-07
-2.09163e-07
-3.81406e-07
-0.0187427
-0.014135
-0.0114949
-0.0101178
-0.00841385
-0.00735783
-0.00602741
-0.00460076
-0.00238706
0.000792132
-0.0168498
-0.0138795
-0.0120628
-0.00931182
-0.00836245
-0.00620607
-0.00569775
-0.00403885
-0.00303575
-0.000175448
-0.013699
-0.0111481
-0.00964532
-0.00771269
-0.00668709
-0.00538263
-0.00442835
-0.00302389
-0.00148296
-0.000111191
-0.0106561
-0.00992298
-0.00865274
-0.0082066
-0.00667578
-0.00588641
-0.00475636
-0.00347869
-0.00220641
-0.000712609
-0.00640284
-0.00747658
-0.00690943
-0.00647513
-0.00585578
-0.00478153
-0.00339029
-0.00268043
-0.00165366
-0.000824429
-0.00411902
-0.00534034
-0.0058569
-0.00572893
-0.00553044
-0.00403002
-0.003719
-0.00276986
-0.00178179
-0.000926959
-0.00541093
-0.00504418
-0.00525482
-0.00533834
-0.00480434
-0.00434182
-0.00351796
-0.00241654
-0.0017777
-0.00109743
-0.00464054
-0.00546397
-0.00544318
-0.00547043
-0.00467816
-0.00471836
-0.00401006
-0.00257362
-0.00169339
-0.000959121
-0.00393635
-0.00493326
-0.00575451
-0.00540073
-0.00469203
-0.00435544
-0.00405732
-0.00345032
-0.00224726
-0.00125818
-0.00683306
-0.00598715
-0.0064135
-0.00619792
-0.00588041
-0.00469709
-0.00394516
-0.00355219
-0.00256373
-0.00127705
-0.00776271
-0.0092607
-0.00828576
-0.00793668
-0.00731328
-0.00541484
-0.00459029
-0.00367658
-0.00263154
-0.00113596
-0.0116759
-0.0103887
-0.00881837
-0.00819765
-0.00710084
-0.00624276
-0.00486418
-0.00396455
-0.00282592
-0.00129759
-0.0145849
-0.013072
-0.0109594
-0.00954993
-0.0082244
-0.00718506
-0.00622154
-0.00496968
-0.00365833
-0.00193247
-0.0161746
-0.0124132
-0.0107903
-0.00960745
-0.00872769
-0.00767329
-0.00652028
-0.0053297
-0.00414121
-0.0023608
3.5082e-33
3.5082e-33
3.5082e-33
3.5082e-33
3.5082e-33
3.5082e-33
3.5082e-33
3.5082e-33
3.5082e-33
3.5082e-33
3.5082e-33
3.5082e-33
3.5082e-33
3.5082e-33
3.5082e-33
3.5082e-33
3.5082e-33
3.5082e-33
3.5082e-33
3.5082e-33
3.5082e-33
3.5082e-33
3.5082e-33
3.5082e-33
3.5082e-33
3.5082e-33
3.5082e-33
3.5082e-33
3.5082e-33
3.5082e-33
3.5082e-33
3.5082e-33
3.5082e-33
3.5082e-33
3.5082e-33
3.5082e-33
3.5082e-33
3.5082e-33
3.5082e-33
3.5082e-33
3.5082e-33
3.5082e-33
3.5082e-33
3.5082e-33
3.5082e-33
3.5082e-33
3.5082e-33
3.5082e-33
3.5082e-33
3.5082e-33
3.5082e-33
3.5082e-33
3.5082e-33
3.5082e-33
3.5082e-33
3.5082e-33
3.5082e-33
3.5082e-33
3.5082e-33
3.5082e-33
3.5082e-33
3.5082e-33
3.5082e-33
3.5082e-33
3.5082e-33
3.5082e-33
3.5082e-33
3.5082e-33
3.5082e-33
3.5082e-33
3.5082e-33
3.5082e-33
3.5082e-33
3.5082e-33
3.5082e-33
3.5082e-33
3.5082e-33
3.5082e-33
3.5082e-33
3.5082e-33
3.5082e-33
3.5082e-33
3.5082e-33
3.5082e-33
3.5082e-33
3.5082e-33
3.5082e-33
3.5082e-33
3.5082e-33
3.5082e-33
3.5082e-33
3.5082e-33
3.5082e-33
3.5082e-33
3.5082e-33
3.5082e-33
3.5082e-33
3.5082e-33
3.5082e-33
3.5082e-33
3.5082e-33
3.5082e-33
3.5082e-33
3.5082e-33
3.5082e-33
3.5082e-33
3.5082e-33
3.5082e-33
3.5082e-33
3.5082e-33
3.5082e-33
3.5082e-33
3.5082e-33
3.5082e-33
3.5082e-33
3.5082e-33
3.5082e-33
3.5082e-33
3.5082e-33
3.5082e-33
3.5082e-33
3.5082e-33
3.5082e-33
3.5082e-33
3.5082e-33
3.5082e-33
3.5082e-33
3.5082e-33
3.5082e-33
3.5082e-33
3.5082e-33
3.5082e-33
3.5082e-33
3.5082e-33
3.5082e-33
3.5082e-33
3.5082e-33
3.5082e-33
3.5082e-33
3.5082e-33
3.5082e-33
3.5082e-33
3.5082e-33
3.5082e-33
3.5082e-33
3.5082e-33
3.5082e-33
3.5082e-33
3.5082e-33
3.5082e-33
3.5082e-33
3.5082e-33
3.5082e-33
3.5082e-33
3.5082e-33
3.5082e-33
3.5082e-33
3.5082e-33
3.5082e-33
3.5082e-33
3.5082e-33
3.5082e-33
3.5082e-33
3.5082e-33
3.5082e-33
3.5082e-33
3.5082e-33
3.5082e-33
3.5082e-33
3.5082e-33
3.5082e-33
3.5082e-33
3.5082e-33
3.5082e-33
3.5082e-33
3.5082e-33
3.5082e-33
3.5082e-33
3.5082e-33
3.5082e-33
3.5082e-33
3.5082e-33
3.5082e-33
3.5082e-33
3.5082e-33
3.5082e-33
3.5082e-33
3.5082e-33
3.5082e-33
3.5082e-33
3.5082e-33
3.5082e-33
3.5082e-33
3.5082e-33
3.5082e-33
3.5082e-33
3.5082e-33
3.5082e-33
3.5082e-33
3.5082e-33
3.5082e-33
3.5082e-33
3.5082e-33
3.5082e-33
3.5082e-33
3.5082e-33
3.5082e-33
3.5082e-33
3.5082e-33
3.5082e-33
3.5082e-33
3.5082e-33
3.5082e-33
3.5082e-33
3.5082e-33
3.5082e-33
3.5082e-33
3.5082e-33
3.5082e-33
3.5082e-33
3.5082e-33
3.5082e-33
3.5082e-33
3.5082e-33
3.5082e-33
3.5082e-33
3.5082e-33
3.5082e-33
3.5082e-33
3.5082e-33
3.5082e-33
3.5082e-33
3.5082e-33
3.5082e-33
3.5082e-33
3.5082e-33
3.5082e-33
3.5082e-33
3.5082e-33
3.5082e-33
3.5082e-33
3.5082e-33
3.5082e-33
3.5082e-33
3.5082e-33
3.5082e-33
3.5082e-33
3.5082e-33
3.5082e-33
3.5082e-33
3.5082e-33
3.5082e-33
3.5082e-33
3.5082e-33
3.5082e-33
3.5082e-33
3.5082e-33
3.5082e-33
3.5082e-33
3.5082e-33
3.5082e-33
3.5082e-33
3.5082e-33
3.5082e-33
3.5082e-33
3.5082e-33
3.5082e-33
3.5082e-33
3.5082e-33
3.5082e-33
3.5082e-33
3.5082e-33
3.5082e-33
3.5082e-33
3.5082e-33
3.5082e-33
3.5082e-33
3.5082e-33
3.5082e-33
3.5082e-33
3.5082e-33
3.5082e-33
3.5082e-33
3.5082e-33
3.5082e-33
3.5082e-33
3.5082e-33
3.5082e-33
3.5082e-33
3.5082e-33
3.5082e-33
3.5082e-33
3.5082e-33
3.5082e-33
3.5082e-33
3.5082e-33
3.5082e-33
3.5082e-33
3.5082e-33
3.5082e-33
3.5082e-33
3.5082e-33
3.5082e-33
3.5082e-33
3.5082e-33
3.5082e-33
3.5082e-33
3.5082e-33
3.5082e-33
3.5082e-33
3.5082e-33
3.5082e-33
3.5082e-33
3.5082e-33
3.5082e-33
3.5082e-33
3.5082e-33
3.5082e-33
3.5082e-33
3.5082e-33
3.5082e-33
3.5082e-33
3.5082e-33
3.5082e-33
3.5082e-33
3.5082e-33
3.5082e-33
3.5082e-33
3.5082e-33
3.5082e-33
3.5082e-33
3.5082e-33
3.5082e-33
3.5082e-33
3.5082e-33
3.5082e-33
3.5082e-33
3.5082e-33
3.5082e-33
3.5082e-33
3.5082e-33
3.5082e-33
3.5082e-33
3.5082e-33
3.5082e-33
3.5082e-33
3.5082e-33
3.5082e-33
3.5082e-33
3.5082e-33
3.5082e-33
3.5082e-33
3.5082e-33
3.5082e-33
3.5082e-33
3.5082e-33
3.5082e-33
3.5082e-33
3.5082e-33
3.5082e-33
3.5082e-33
3.5082e-33
3.5082e-33
3.5082e-33
3.5082e-33
3.5082e-33
3.5082e-33
3.5082e-33
3.5082e-33
3.5082e-33
3.5082e-33
3.5082e-33
3.5082e-33
3.5082e-33
3.5082e-33
3.5082e-33
3.5082e-33
3.5082e-33
3.5082e-33
3.5082e-33
3.5082e-33
3.5082e-33
3.5082e-33
3.5082e-33
3.5082e-33
3.5082e-33
3.5082e-33
3.5082e-33
3.5082e-33
3.5082e-33
3.5082e-33
3.5082e-33
3.5082e-33
3.5082e-33
3.5082e-33
3.5082e-33
3.5082e-33
3.5082e-33
3.5082e-33
3.5082e-33
3.5082e-33
3.5082e-33
3.5082e-33
3.5082e-33
3.5082e-33
3.5082e-33
3.5082e-33
3.5082e-33
3.5082e-33
3.5082e-33
3.5082e-33
3.5082e-33
3.5082e-33
3.5082e-33
3.5082e-33
3.5082e-33
3.5082e-33
3.5082e-33
3.5082e-33
3.5082e-33
3.5082e-33
3.5082e-33
3.5082e-33
3.5082e-33
3.5082e-33
3.5082e-33
3.5082e-33
3.5082e-33
3.5082e-33
3.5082e-33
3.5082e-33
3.5082e-33
3.5082e-33
3.5082e-33
3.5082e-33
3.5082e-33
3.5082e-33
3.5082e-33
3.5082e-33
3.5082e-33
3.5082e-33
3.5082e-33
3.5082e-33
3.5082e-33
3.5082e-33
3.5082e-33
3.5082e-33
3.5082e-33
3.5082e-33
3.5082e-33
3.5082e-33
3.5082e-33
3.5082e-33
3.5082e-33
3.5082e-33
3.5082e-33
3.5082e-33
3.5082e-33
3.5082e-33
3.5082e-33
3.5082e-33
3.5082e-33
3.5082e-33
3.5082e-33
3.5082e-33
3.5082e-33
3.5082e-33
3.5082e-33
3.5082e-33
3.5082e-33
3.5082e-33
3.5082e-33
3.5082e-33
3.5082e-33
3.5082e-33
3.5082e-33
3.5082e-33
3.5082e-33
3.5082e-33
3.5082e-33
3.5082e-33
3.5082e-33
3.5082e-33
3.5082e-33
3.5082e-33
3.5082e-33
3.5082e-33
3.5082e-33
3.5082e-33
3.5082e-33
3.5082e-33
3.5082e-33
3.5082e-33
3.5082e-33
3.5082e-33
3.5082e-33
3.5082e-33
3.5082e-33
3.5082e-33
3.5082e-33
3.5082e-33
3.5082e-33
3.5082e-33
3.5082e-33
3.5082e-33
3.5082e-33
3.5082e-33
3.5082e-33
3.5082e-33
3.5082e-33
3.5082e-33
3.5082e-33
3.5082e-33
3.5082e-33
3.5082e-33
3.5082e-33
3.5082e-33
3.5082e-33
3.5082e-33
3.5082e-33
3.5082e-33
3.5082e-33
3.5082e-33
3.5082e-33
3.5082e-33
3.5082e-33
3.5082e-33
3.5082e-33
3.5082e-33
3.5082e-33
3.5082e-33
3.5082e-33
3.5082e-33
3.5082e-33
3.5082e-33
3.5082e-33
3.5082e-33
3.5082e-33
3.5082e-33
3.5082e-33
3.5082e-33
3.5082e-33
3.5082e-33
3.5082e-33
3.5082e-33
3.5082e-33
3.5082e-33
3.5082e-33
3.5082e-33
3.5082e-33
3.5082e-33
3.5082e-33
3.5082e-33
3.5082e-33
3.5082e-33
3.5082e-33
3.5082e-33
3.5082e-33
3.5082e-33
3.5082e-33
3.5082e-33
3.5082e-33
3.5082e-33
3.5082e-33
3.5082e-33
3.5082e-33
3.5082e-33
3.5082e-33
3.5082e-33
3.5082e-33
3.5082e-33
3.5082e-33
3.5082e-33
3.5082e-33
3.5082e-33
3.5082e-33
3.5082e-33
3.5082e-33
3.5082e-33
3.5082e-33
3.5082e-33
3.5082e-33
3.5082e-33
3.5082e-33
3.5082e-33
3.5082e-33
3.5082e-33
3.5082e-33
3.5082e-33
3.5082e-33
3.5082e-33
3.5082e-33
3.5082e-33
3.5082e-33
3.5082e-33
3.5082e-33
3.5082e-33
3.5082e-33
3.5082e-33
3.5082e-33
3.5082e-33
3.5082e-33
3.5082e-33
3.5082e-33
3.5082e-33
3.5082e-33
3.5082e-33
3.5082e-33
3.5082e-33
3.5082e-33
3.5082e-33
3.5082e-33
3.5082e-33
3.5082e-33
3.5082e-33
3.5082e-33
3.5082e-33
3.5082e-33
3.5082e-33
3.5082e-33
3.5082e-33
3.5082e-33
3.5082e-33
3.5082e-33
3.5082e-33
3.5082e-33
3.5082e-33
3.5082e-33
3.5082e-33
3.5082e-33
3.5082e-33
3.5082e-33
3.5082e-33
3.5082e-33
3.5082e-33
3.5082e-33
3.5082e-33
3.5082e-33
3.5082e-33
3.5082e-33
3.5082e-33
3.5082e-33
3.5082e-33
3.5082e-33
3.5082e-33
3.5082e-33
3.5082e-33
3.5082e-33
3.5082e-33
3.5082e-33
3.5082e-33
3.5082e-33
3.5082e-33
3.5082e-33
3.5082e-33
3.5082e-33
3.5082e-33
3.5082e-33
3.5082e-33
3.5082e-33
3.5082e-33
3.5082e-33
3.5082e-33
3.5082e-33
3.5082e-33
3.5082e-33
3.5082e-33
3.5082e-33
3.5082e-33
3.5082e-33
3.5082e-33
3.5082e-33
3.5082e-33
3.5082e-33
3.5082e-33
3.5082e-33
3.5082e-33
3.5082e-33
3.5082e-33
3.5082e-33
3.5082e-33
3.5082e-33
3.5082e-33
3.5082e-33
3.5082e-33
3.5082e-33
3.5082e-33
3.5082e-33
3.5082e-33
3.5082e-33
3.5082e-33
3.5082e-33
3.5082e-33
3.5082e-33
3.5082e-33
3.5082e-33
3.5082e-33
3.5082e-33
3.5082e-33
3.5082e-33
3.5082e-33
3.5082e-33
3.5082e-33
3.5082e-33
3.5082e-33
3.5082e-33
3.5082e-33
3.5082e-33
3.5082e-33
3.5082e-33
3.5082e-33
3.5082e-33
3.5082e-33
3.5082e-33
3.5082e-33
3.5082e-33
3.5082e-33
3.5082e-33
3.5082e-33
3.5082e-33
3.5082e-33
3.5082e-33
3.5082e-33
3.5082e-33
3.5082e-33
3.5082e-33
3.5082e-33
3.5082e-33
3.5082e-33
3.5082e-33
3.5082e-33
3.5082e-33
3.5082e-33
3.5082e-33
3.5082e-33
3.5082e-33
3.5082e-33
3.5082e-33
3.5082e-33
3.5082e-33
3.5082e-33
3.5082e-33
3.5082e-33
3.5082e-33
3.5082e-33
3.5082e-33
3.5082e-33
3.5082e-33
3.5082e-33
3.5082e-33
3.5082e-33
3.5082e-33
3.5082e-33
3.5082e-33
3.5082e-33
3.5082e-33
3.5082e-33
3.5082e-33
3.5082e-33
3.5082e-33
3.5082e-33
3.5082e-33
-7.2289e-05
-7.38095e-05
-0.000141642
-0.000112303
-4.40821e-05
-3.0975e-05
5.72727e-05
0.000184019
4.6531e-05
-8.66198e-06
1.77686e-05
-0.000115489
0.000151306
3.88344e-05
6.88981e-06
-6.01182e-05
-0.000261928
0.000123876
0.000101467
-0.000266773
-0.00026996
-0.000113502
0.000513
0.000302458
0.000275974
0.000105411
-1.86631e-06
-8.30971e-07
-1.07364e-06
-2.23462e-06
-7.15709e-07
-1.39029e-06
-3.22163e-06
-5.07968e-07
-1.3908e-06
-3.47427e-06
-4.59648e-07
-5.10074e-07
-1.03277e-06
-1.1906e-06
7.03013e-07
2.48368e-07
1.38906e-07
-1.67906e-06
-1.09067e-06
-1.44492e-06
3.07286e-07
-5.06218e-07
5.466e-07
2.03112e-07
0.00497258
-0.00144633
0.000325444
0.00370855
0.0100473
0.00529519
0.00908603
0.0042134
0.00472269
0.000650439
-0.000411317
-0.000574671
-0.000241531
-0.000545037
-0.000264802
-0.000621718
-0.000582195
-0.000246128
-0.00325887
-0.000500286
-0.000221031
-0.00382145
-0.00215042
-0.00969697
-1.46166e-06
0.000531946
-0.00793089
-0.00430587
-0.00762667
-1.0792e-07
-7.13929e-08
2.38814e-09
-9.88667e-08
-3.38439e-07
-3.73787e-08
-1.26517e-07
-1.28348e-07
-5.13994e-07
-2.9119e-07
0.000320762
0.000286115
0.000508667
3.66314e-08
8.06083e-07
1.08441e-07
-5.94415e-07
1.12927e-06
-5.58248e-07
8.39409e-07
5.02624e-07
2.20127e-06
2.17933e-06
1.97709e-06
-4.46607e-08
-7.40165e-08
1.37595e-06
1.71932e-06
2.20323e-06
0.000159035
0.000139141
0.000190384
0.000258311
0.000103231
4.0349e-05
-9.59752e-05
0.000392675
0.000318679
0.000155137
0.000285967
0.000223779
-0.0013042
-0.00131684
-2.83862e-05
5.19802e-05
-1.64623e-06
1.14386e-06
-1.12115e-06
2.27046e-07
1.45197e-06
-1.4897e-07
2.05131e-06
3.12621e-06
2.49112e-05
4.91053e-05
1.92455e-05
4.9871e-06
1.72568e-05
4.42961e-05
-8.18893e-06
0.00856882
0.00851718
0.00497174
3.56449e-06
9.47475e-06
6.56935e-05
0.000109047
-4.20862e-05
-3.98066e-05
0.000130142
0.000247821
-0.000726373
0.000893404
-5.40506e-05
0.000247873
-0.000234893
0.000564536
0.00101695
0.000559617
-0.00101662
-0.00154873
-0.000491634
-0.000656249
0.000366683
0.00102656
0.00313304
0.000656017
0.00112806
0.0030683
0.00419084
0.00376193
0.00323838
0.00376577
0.00477753
0.00287297
0.00477753
0.00318808
-0.000164051
-0.000145973
-6.77302e-05
-2.70532e-05
-2.18323e-05
0.000145999
-0.000279047
0.000153746
0.000102346
-0.000129069
-6.15309e-05
-0.000177744
2.32466e-05
4.92673e-05
-9.5126e-06
7.88541e-06
8.51529e-06
1.07966e-07
0.00347368
0.00225776
0.00106882
0.00140004
-2.47464e-05
-9.36153e-06
-3.52273e-05
-1.19751e-05
-2.38254e-05
-2.62308e-05
-3.23183e-06
-3.70005e-06
-3.27069e-06
-4.70251e-06
3.07388e-07
8.88984e-08
-6.54469e-07
-3.58017e-05
-8.65325e-05
7.77308e-06
-6.04193e-05
-0.000108772
-9.13581e-05
-5.50078e-05
-5.45223e-06
-3.70671e-05
-1.50447e-05
1.5416e-06
-2.75364e-05
-4.58723e-05
0.000259018
0.000101167
-0.000280321
-0.000154635
-6.78075e-05
-0.000354699
-0.000219958
-2.93534e-07
2.17762e-06
-2.45576e-07
2.76125e-06
-1.01248e-06
2.55069e-06
-1.48283e-06
4.76085e-06
-8.4553e-08
-4.50636e-06
3.90636e-06
8.11523e-07
-2.08962e-07
2.42396e-06
-3.04422e-07
1.15311e-06
-2.53475e-06
-1.58711e-06
3.60385e-06
5.4067e-06
0.00030983
0.000325986
1.13126e-06
0.000211178
-0.000127912
-1.09787e-05
0.000402968
0.000133123
-4.12883e-07
2.81247e-07
-2.34021e-06
5.07247e-07
3.50115e-08
-1.95592e-06
-4.09502e-06
-2.54962e-08
-3.68315e-07
-2.22547e-07
-2.12632e-07
-8.18314e-07
1.34209e-07
4.42124e-07
-3.46159e-07
1.38549e-07
2.02625e-06
7.78223e-07
-4.66268e-07
6.85711e-07
3.55356e-06
-9.8025e-07
2.05291e-06
5.69005e-08
6.35899e-07
1.00812e-06
-2.64709e-06
-4.45882e-06
-2.32089e-06
-0.00356297
-3.75525e-07
-5.0233e-07
-9.46728e-07
-2.11782e-06
-2.36717e-06
0.000673468
0.00062731
-0.000491283
0.000515659
4.92481e-06
3.52676e-06
6.03034e-07
1.75049e-06
1.20632e-06
1.12574e-06
0.000376048
0.000513895
0.000492206
0.000389238
0.00115223
0.000452792
0.00100101
0.00109547
0.000864612
0.00142288
0.00106692
0.000735412
0.00142628
0.000801757
-0.00114408
0.00040998
-0.0017439
0.000125942
0.00102917
-0.00104328
0.00163676
-0.00139077
-0.00121016
0.00108923
0.000362538
0.00164873
0.000106714
0.000948191
0.002589
0.00237332
0.00123696
0.00206213
0.00240796
-0.00375337
-0.00220135
-0.00266304
-0.00176777
0.00278626
0.000716949
0.000413051
0.00038548
0.000377412
2.46995e-05
0.00242185
0.00451556
0.00578817
0.000128922
-0.000231592
-7.58456e-07
3.28891e-07
1.00467e-07
1.86227e-06
1.96495e-06
2.68397e-06
2.79036e-07
1.29681e-06
0.00165457
0.00090107
-0.000310921
-0.00267968
0.000844137
0.00146129
0.00241621
0.000451177
0.0030038
-0.00314872
-0.00205921
-2.98766e-05
-5.76098e-05
-0.000400972
-0.000231116
-0.0003964
0.00029336
-0.00877819
-0.00350082
-0.00781403
-0.00648498
0.000292075
9.88165e-05
0.000115281
-8.01066e-05
0.000252385
-0.000199225
5.83989e-05
-4.96095e-05
-3.25829e-05
-7.4979e-05
2.51352e-05
-2.83798e-05
-8.31311e-06
8.6426e-06
-0.00239386
-0.00105232
-0.00101814
-0.000530052
0.000193427
2.90318e-05
-2.46641e-06
-1.57303e-07
-4.90768e-07
-1.53089e-06
2.03951e-06
-1.3162e-06
-2.45578e-06
3.86535e-06
4.13563e-06
-0.000503238
0.0013521
-0.00133137
0.00196905
0.00344794
0.00194408
0.00162427
0.000550564
-0.000257952
0.000718268
0.00246493
0.00219286
0.000680955
0.0017281
0.00274561
-0.0111002
-0.00551372
-0.00670903
-0.00346393
-0.00645086
-0.00604659
-0.0142234
-0.0153664
-0.0107559
9.27182e-05
0.000177709
-2.88613e-05
-1.41657e-05
-1.14219e-05
-2.8602e-08
-4.56373e-06
7.73192e-06
-1.48987e-05
-8.66513e-06
-4.06822e-06
-1.08757e-05
-8.39668e-06
2.21985e-06
4.13374e-06
8.23822e-07
-6.1923e-06
-1.28458e-06
6.41183e-06
1.07334e-05
1.17845e-06
-1.92472e-06
-5.84441e-06
0.00123328
0.000706921
0.000899387
0.000964279
0.00147554
0.00191526
0.00241112
-3.24606e-05
-5.57795e-05
2.23183e-06
2.51703e-05
9.93308e-06
0.000744877
0.00035321
0.000286312
-4.14426e-05
-0.000191
-0.000302214
-4.41346e-05
-9.40875e-05
0.000407577
-0.000340966
0.000341748
4.66042e-06
2.66657e-05
-0.0040653
0.0021596
-0.000112453
-3.71736e-05
1.54791e-05
0.000667666
0.000202186
0.000882366
-5.09288e-06
0.000538921
0.00104495
2.81354e-05
0.000261818
-0.000286762
-0.000214662
-3.09139e-07
3.73268e-06
3.09518e-06
-2.56964e-06
-8.06593e-07
-3.24777e-06
-2.76168e-06
-1.21775e-06
-8.52178e-07
-1.6327e-06
2.35574e-07
-4.62394e-06
-2.09048e-06
-3.67228e-06
3.51041e-07
0.00276868
0.0071199
0.0045654
0.00462388
0.00372721
0.0056176
0.00291804
0.0021145
0.000307948
-0.00300995
0.00201439
0.00312371
0.00437797
0.00453578
-0.000321137
-0.000223509
-0.000568827
-0.000476364
-0.000347815
-0.000329588
-0.000189162
-0.000132942
-6.65664e-05
0.000410084
0.000537691
0.000182463
0.000178806
-0.00014741
0.0002756
0.00145711
0.000917853
0.000830482
0.00134851
0.000339791
0.000425298
0.00136546
0.00100232
0.000439529
0.000189931
0.000253034
0.000394735
0.000742325
0.000797751
0.00083384
0.000256597
0.000446257
0.000237853
0.000705998
0.00053914
-0.00062962
-0.000738423
0.000687102
0.00135283
-7.20603e-05
-0.000145498
0.00024038
-0.000186037
0.000572805
0.000183173
0.00063447
0.00078353
0.000684611
0.000496981
0.000590702
0.00128084
0.0003042
0.000341575
-0.000920817
0.00170963
-0.00133382
-0.00168958
-0.00260565
-0.00249644
-0.000869606
-0.00526928
-0.00609966
-0.00485177
1.34303e-05
0.000127293
-0.000110909
-8.16802e-05
7.40545e-05
0.000435592
-0.000263056
-3.07711e-05
-5.22296e-06
-0.000180968
7.38365e-05
-0.000247046
-0.00034633
0.000226803
0.000241286
5.51064e-05
8.98006e-05
-0.00019271
-0.00508338
5.22817e-05
-7.37226e-06
0.000165467
4.16942e-05
0.00019843
5.12582e-05
9.09037e-05
0.000118235
0.000213151
-0.000125871
-0.000272064
0.000154516
0.000391599
-5.40901e-05
-0.000309719
-0.000318136
-0.00021595
0.00018489
-6.49989e-07
-1.99997e-06
1.26211e-06
7.9238e-07
0.000366199
-4.59256e-06
4.81412e-07
-4.56411e-06
0.000764877
0.00111449
0.0013979
-0.00028606
0.000226928
-0.000904377
-0.000631027
-0.000709769
-0.000610563
-0.00117917
2.51436e-06
-0.000203264
1.02247e-05
-7.73045e-06
9.2113e-05
-0.000247325
-0.00028165
6.44563e-05
-0.00381717
0.000976387
-9.90252e-05
-0.000487592
8.43379e-06
-0.000285984
-0.000693929
-0.000376337
0.00170901
-3.54894e-06
-5.4781e-06
-1.38015e-06
-5.70143e-06
-3.35541e-06
-2.79628e-06
-2.50563e-07
-3.73742e-06
-3.24157e-06
-2.49962e-06
1.70771e-07
-5.1784e-06
-5.97951e-06
-7.04163e-06
1.1862e-05
-1.70149e-06
4.53374e-05
4.32892e-05
3.54538e-05
-3.72379e-06
9.1308e-06
4.57482e-06
3.51615e-05
4.57005e-05
0.000383835
0.000255669
-0.000632331
-0.00687332
-0.00472491
-0.00365994
0.000621345
-0.000209504
1.13298e-07
-2.85239e-07
-1.20242e-06
-5.46947e-07
-3.25304e-07
-1.4691e-06
9.50702e-07
6.09253e-08
-0.000208917
-6.30473e-06
-2.20871e-06
-4.05785e-06
-4.75753e-06
-5.79488e-06
-2.40023e-06
-1.94899e-06
-8.06944e-06
-3.31219e-06
-1.45302e-07
-5.76525e-07
-5.2956e-07
2.82392e-06
4.12603e-06
-4.53348e-06
-5.20326e-06
-1.97092e-05
-2.07546e-05
-4.35095e-06
1.40922e-07
-1.0531e-06
-8.35352e-06
-9.48211e-06
-6.98007e-06
0.000752625
0.00481003
0.00124979
0.000791056
-9.61572e-06
0.000213252
0.00012476
-0.000458791
-0.000110037
0.000804434
6.50736e-06
-9.03984e-06
1.24607e-05
-1.18188e-06
0.00267238
0.00386456
0.000752928
0.00465001
0.000887339
0.00283492
0.00110003
0.00134366
0.00459806
0.0013682
4.96183e-06
-0.00205133
-0.00518851
-0.00210079
0.00048373
-0.00258883
-0.00425961
0.00100649
0.00368636
0.00363045
0.00352748
0.00252185
0.00151826
-3.38833e-05
0.000284078
-0.00240075
-0.00247121
-0.00167158
0.00254162
0.000226656
0.00111053
-0.000831945
0.00390567
-0.00900949
0.00466173
0.00297087
-0.000921624
0.000889421
-0.00455511
-0.00214959
-0.000331787
0.000600851
0.00291136
-0.00364792
-8.93528e-05
-0.00171468
-0.00360591
5.77404e-05
0.000120614
0.000257873
0.000153153
0.000127891
-0.00628576
0.000170279
0.000131711
-0.00288392
-0.0063704
-0.00567417
-0.00783778
0.00194437
0.0050516
0.00105233
-0.000863512
0.000773896
0.00589493
0.00427401
0.00125624
0.00469376
-1.51617e-05
-1.78158e-05
-8.72703e-06
-1.05749e-05
-1.72858e-05
-3.55879e-06
-2.28361e-06
0.00135698
0.000430133
0.000507597
-0.00184682
-0.000675159
-9.67381e-07
-5.88876e-07
4.52608e-06
-6.49656e-06
-6.94505e-06
-6.33381e-06
0.00670364
-5.20302e-06
1.7868e-06
0.00400293
0.00546266
6.25949e-06
-3.05874e-05
4.24312e-05
1.70958e-05
3.98796e-05
-1.42578e-05
-4.77817e-05
-6.99559e-05
-4.52313e-05
-0.00507213
0.00617243
0.000997833
0.00174227
2.31789e-06
2.10045e-06
-0.00085988
-0.00337659
-0.00803164
-0.00354956
0.000358971
0.000178813
0.000165168
0.00036133
0.000378842
-0.00535422
0.000478836
1.47664e-06
6.89819e-07
3.76608e-05
0.00132117
0.00285771
0.00283544
0.00064986
-8.39934e-07
-4.47287e-06
-1.09151e-06
-5.17749e-06
3.5961e-06
-5.28313e-07
1.55634e-06
5.47519e-06
-2.95724e-07
-2.71906e-07
5.8824e-08
-1.20925e-06
-6.49515e-07
1.97394e-06
1.22322e-06
2.63536e-06
2.39133e-06
4.21301e-06
4.05573e-06
-2.67884e-06
-2.00083e-06
-4.95668e-06
-2.18538e-06
-5.83517e-06
-3.03894e-06
-0.00012015
-0.000119164
-0.000211154
-0.000219656
2.26613e-05
-8.84201e-05
-8.86955e-05
0.000595625
-0.00163216
0.000714315
2.34934e-05
5.89699e-06
-0.00477879
-0.00416565
-0.00644536
-0.00235259
3.20105e-05
-2.36103e-06
5.23682e-07
3.22283e-05
-1.28024e-06
4.619e-07
6.28782e-07
1.71866e-06
3.06583e-06
-1.07116e-07
-0.00303697
-0.00153014
-0.00162349
-0.00329756
-1.34803e-06
8.99307e-05
0.000105835
3.60474e-05
-9.31419e-07
0.00091952
-0.00168735
-0.000529165
-0.00162509
-0.00312844
-0.00223906
-0.00299323
-0.00608269
-6.20956e-06
0.000154201
0.00105947
0.000210894
0.00030646
8.13611e-06
6.88572e-06
1.78209e-05
2.36863e-06
5.59441e-06
1.32985e-05
1.60063e-05
-0.000231751
9.81451e-05
0.000209043
0.000288328
-3.50404e-06
-3.33703e-06
-2.10734e-06
-1.31983e-05
-1.79835e-05
-6.55585e-05
0.000363575
-6.34304e-05
8.07751e-05
0.000266397
-0.00312839
-0.00250254
-0.00511382
0.000147609
-0.000418859
-0.000216977
0.0034179
0.00165067
0.000103684
0.00201392
-2.14429e-05
-4.63117e-05
-6.93934e-05
-2.11166e-05
-5.17623e-05
-4.33637e-05
-3.0625e-05
-3.71913e-05
-1.65496e-05
0.00148211
-0.000513738
0.00250253
0.000658632
0.00296876
-0.00180128
-0.00352628
-0.00218349
-0.00197147
0.00304598
4.23056e-05
-3.5975e-06
-0.00376666
-0.0043524
7.2875e-05
0.000106492
5.14916e-06
5.69363e-05
-1.20328e-06
-4.96547e-07
-4.30354e-07
-1.92003e-07
-4.19536e-07
7.3412e-07
7.84939e-08
-1.89188e-06
-8.79622e-07
0.00198719
0.0021035
0.000261168
0.000330638
2.28369e-06
-3.78608e-07
-0.00293513
-0.00228946
-0.00363451
8.85106e-05
-0.00478706
-0.00540785
-2.66855e-06
-6.42646e-05
-0.000290808
-0.000214634
-6.4172e-05
-0.00625999
-0.000103358
7.6163e-05
-0.000110882
-0.00203778
0.000130276
0.000224959
0.000132076
-8.8621e-05
-2.26783e-05
-0.000285586
-0.00049891
-0.000139286
-5.91946e-07
-5.75242e-07
-1.65506e-07
-1.26678e-07
-0.000145251
-0.000342465
-0.000618596
-0.00042836
3.8571e-05
-0.000696354
-0.00341776
0.00517861
0.0035435
0.00346415
-0.00208772
-0.00243622
-0.004294
-0.00457531
-4.74847e-05
-4.26933e-05
-5.64632e-06
-5.66305e-06
-1.02481e-05
-1.23593e-05
-9.22401e-06
-1.53762e-05
-6.17965e-06
-0.00673795
-6.62709e-06
0.00309498
-0.0011358
-0.000338612
-0.000301679
-0.00161716
0.000350798
0.00245308
-0.00414926
-0.00346411
-0.000202149
0.00511684
0.0056954
-0.00394401
-0.00402961
-0.00354603
0.00683593
-0.00212087
-0.00513653
-0.00563703
-5.28644e-07
-1.80161e-05
-0.00044775
-0.000438016
-8.96638e-06
5.49254e-05
-4.31711e-05
-0.00482599
-1.95519e-06
-4.4303e-07
3.60394e-05
0.000132986
0.000181345
0.000166318
0.000186622
0.00161219
0.000403122
0.00490632
0.00403517
-0.00419964
0.0010545
0.00421149
-0.000310726
0.003815
2.16059e-07
0.000461547
-0.00217257
0.000546802
0.000136301
4.89308e-06
-0.00188769
-0.00248005
-0.00553494
-0.00506439
0.000763061
0.00219808
-0.000458589
0.00100032
0.00123558
0.00262591
0.00193754
0.00252387
0.000963961
0.00195554
-0.000574145
-0.00124711
-0.00432057
0.000316658
0.000699806
0.00246584
0.000232098
-0.000375732
0.00193609
-0.00190577
0.00200891
0.0022959
0.000339403
0.000184165
0.00019377
0.000291813
-2.8779e-06
-1.75899e-06
-2.97738e-06
-3.62924e-06
0.000312639
0.000167282
-1.07463e-05
0.000275663
0.000343535
0.000519609
0.000619715
1.11402e-06
5.29073e-06
4.11737e-06
5.13186e-06
1.59299e-06
8.01218e-06
4.55106e-06
0.00021937
0.000468374
0.000190084
0.000236385
0.000825985
0.00168902
0.00210669
0.00224832
0.00176935
-0.000392012
-0.000348253
0.000741507
-0.000153317
9.34659e-05
0.000176715
9.79037e-07
-3.23239e-06
-1.90574e-05
1.41498e-06
-8.10362e-05
-0.000103646
-0.00013348
-0.000215697
-0.000250679
-0.000300632
8.27028e-05
-0.000166772
0.000109328
0.000365549
0.000396852
0.000237992
-0.000138413
-0.000120714
0.000137484
7.94032e-05
-1.66855e-06
0.000414041
-0.000475296
-0.000501266
-0.000178916
-4.19789e-05
-0.000516023
-0.00719976
0.000379188
0.000567381
-0.00486284
-0.00499149
0.000668034
0.000788822
0.000787217
0.002835
0.00325328
-0.000259096
0.00556866
0.00371772
0.00306711
0.00361781
0.00399531
0.00206919
0.00460775
0.0085444
0.00685673
-4.79715e-07
-1.27395e-07
-3.59959e-07
-9.51761e-07
-6.69863e-07
-1.98102e-07
-3.14758e-05
-7.70207e-05
3.73636e-05
0.00553506
0.000488507
0.000650925
0.000595548
0.000505655
0.00437635
1.27721e-06
1.72143e-06
-3.8795e-06
-8.00701e-07
3.25815e-08
-2.99906e-06
5.82178e-06
1.43055e-06
7.83997e-07
4.87108e-06
4.39252e-06
-8.79737e-07
1.28688e-06
-0.000845583
-0.00202997
-0.00372842
-0.00172561
-0.00685197
0.00163989
-0.000664868
-0.00182766
-0.00349841
-0.00312058
9.25952e-07
2.64106e-06
4.11334e-06
6.79357e-07
4.36638e-06
-1.19251e-06
8.13214e-06
-2.15759e-07
7.51992e-06
1.40415e-07
4.8447e-06
4.78788e-06
2.63772e-06
1.26754e-05
0.001499
0.00122265
0.00142775
0.000859621
0.000457004
0.00113573
0.000271948
0.00130067
-4.03269e-05
0.000531836
-5.03835e-06
0.00462597
0.00503711
0.000165014
0.000172308
-5.6884e-06
-0.000290128
-0.000426003
-0.000175947
-0.000423082
2.22377e-05
-0.000321366
2.36116e-05
-0.000493817
-0.000613713
-7.21029e-06
-7.7569e-06
-3.7312e-06
-0.000419281
-0.000553575
-0.000506589
-0.0047059
-3.21515e-05
-5.11641e-05
0.00323353
0.000788658
0.00253829
0.00202444
0.00232766
0.00104001
-0.00211411
-0.00463861
-0.00500046
0.00251091
0.00282067
0.0021908
9.14713e-06
1.98523e-05
2.41525e-05
1.94883e-06
5.40725e-06
1.48115e-05
3.76077e-06
0.000635444
-1.63782e-06
0.00381629
-3.63005e-07
-5.19321e-06
-0.00207414
0.00120188
2.59668e-05
-0.00109527
0.000303235
0.00116332
-0.00201882
0.00440727
0.00470654
0.0042169
0.00212285
4.24381e-06
0.00365408
0.00430176
0.00164489
2.91264e-06
0.0013369
0.00375615
-0.00346081
-0.0037604
0.000348426
0.000190891
0.000336932
0.000485529
0.000281826
-2.93066e-06
-4.63915e-06
-4.73084e-06
-2.41574e-06
-9.59417e-07
1.76674e-07
8.16228e-07
1.90209e-06
3.44542e-07
-0.00778817
4.68511e-06
0.00463245
-4.66254e-07
4.37952e-07
-3.55176e-07
-8.71233e-07
-1.45684e-06
0.00140559
0.0033448
0.00332388
0.00277867
-0.00306185
3.16737e-08
0.00309027
0.00283934
0.000176354
-8.01253e-05
-6.94543e-05
6.51248e-05
0.000519756
0.000408142
0.000378551
0.000512535
0.000239997
-0.00395363
0.000385648
-0.00021024
-0.000232631
0.00100983
0.000594601
0.000365496
0.000346175
0.000345076
0.000444808
-0.000439974
0.000413964
0.000602409
-0.000277714
0.0011615
0.00094009
0.00110628
-0.00123011
-0.000969352
-0.00148903
0.000920714
0.00524645
0.00122498
0.000465724
0.00238789
-0.00479267
-0.00496229
-2.74448e-06
-6.38717e-06
-1.19619e-05
1.8174e-05
4.57328e-06
1.11191e-06
-0.00524546
-7.11875e-06
-1.12383e-05
-1.15544e-05
-2.06531e-05
-2.54453e-05
1.66139e-06
-3.03182e-06
0.00013038
3.25737e-05
-1.46334e-05
-2.16682e-05
-2.32811e-05
-0.000117629
-2.92014e-05
-8.82443e-05
9.42487e-06
1.1594e-05
-0.000102046
-4.47533e-06
0.000375155
-0.00747451
1.62159e-06
2.40937e-07
-0.00194385
-0.00119326
-0.00104537
-0.00321289
-0.00351297
-0.00324957
-0.00111446
0.000592542
-0.00287145
-2.11699e-05
-4.34748e-05
0.00498813
-1.18997e-05
-9.60538e-06
-8.54456e-06
-9.97225e-06
-1.96657e-05
-0.00843911
-2.68155e-05
-0.000368141
-0.000116377
0.000114298
-5.84991e-05
-5.25982e-05
-0.000407712
-6.59874e-06
0.000152956
0.000349162
0.000112024
3.0785e-05
-0.000204897
-0.000116389
3.01486e-06
1.35559e-06
2.10814e-06
4.34761e-06
0.00115049
0.000256815
0.000278505
0.00245787
0.0029116
0.000255792
0.00190368
0.00274911
0.000898018
-0.00259351
0.00151437
0.00308825
0.000995746
0.00130379
0.00386512
0.000726703
0.00405733
0.000872771
0.00162252
0.000390804
-0.000137669
6.54656e-06
-0.000269273
-0.000110728
0.0003247
0.000327067
0.000781548
0.00036169
0.00102058
0.000715562
0.000382
7.65321e-05
6.38485e-06
3.29628e-06
8.25117e-06
8.95365e-06
9.34758e-06
9.2063e-06
1.20118e-05
0.000711287
0.000822195
0.000819579
0.000600013
-0.000368847
-0.000846097
-0.000490009
-0.000525197
-0.000672848
-0.00905972
-0.0098536
4.22625e-06
7.66868e-06
7.7803e-06
0.000443332
0.000672453
0.000157476
0.000715083
0.000484092
0.000493961
0.000636948
0.000249729
3.99742e-06
4.09479e-06
1.69363e-06
6.83851e-07
0.000226597
0.000245053
0.00020756
-2.74144e-05
8.23483e-06
-0.000222239
0.000197444
0.000242232
-0.00149308
-0.0020873
0.000427644
-0.00176656
0.000262551
0.000634002
0.000335786
0.000311473
0.000376005
0.000363175
0.00014998
8.02839e-06
4.5807e-06
8.31309e-06
-0.000575159
-0.000561611
-1.8304e-05
-0.000114942
-9.07046e-05
0.000352787
0.000555521
0.000836776
0.00105336
0.00052003
0.000170595
-7.57222e-07
1.44872e-06
5.72488e-07
-1.92002e-07
0.000451521
0.000253854
0.000426758
0.000273522
-0.00223057
-0.00139435
-0.000354143
0.000264506
-0.000481442
-0.000390159
1.92022e-07
8.867e-07
9.85016e-07
2.94478e-07
0.000902677
0.0002946
1.36838e-06
1.55866e-06
0.000594997
0.000879691
0.000359892
-1.73103e-06
-0.0074116
-0.00688602
-0.00658811
-2.54632e-06
-2.09244e-06
-3.22316e-06
-1.78966e-06
-0.00143217
0.000651406
0.000775967
0.00285723
0.00102485
0.000545819
0.00223863
6.62448e-05
0.000104448
2.52507e-07
0.00162576
0.00168285
4.26499e-06
-0.000153924
-0.000169445
0.000536474
-0.00140621
0.00480986
0.00330571
-0.000323943
0.00453488
0.00429362
-0.000103677
-0.000440276
-0.000385079
0.000144843
6.33953e-05
0.000193957
-3.80518e-05
-0.000272069
-0.000125519
0.000706457
0.000428454
0.000305258
0.00104141
0.000551436
-7.34043e-05
5.57071e-05
2.47174e-06
3.35309e-07
3.17697e-06
5.72979e-06
0.000332879
0.000208337
0.000233864
0.000247528
0.00190338
-0.000365793
-0.000659069
-0.000711897
0.000582181
0.00078458
-3.72619e-05
-3.54231e-06
9.90306e-08
2.91017e-07
6.3874e-06
2.03567e-06
-2.51289e-09
1.46699e-06
0.00375528
-2.02385e-06
-3.78134e-06
-3.25722e-07
-3.40428e-07
-3.02561e-09
-5.37401e-08
-8.32969e-07
-9.49326e-07
3.26059e-06
1.54399e-06
-0.000100587
-0.000167592
-0.000360005
-1.22321e-06
-4.53813e-06
-0.000522218
-0.000412274
-0.000514804
-0.000399381
-0.00057165
0.00461159
2.16722e-07
-1.47782e-05
-8.15311e-07
-1.71477e-05
0.000106478
-5.55249e-06
-2.94889e-06
-1.07418e-05
-4.32697e-05
-4.57511e-05
0.00457184
0.00343794
-0.00111165
0.0024428
-0.0003529
0.000192975
0.00230214
0.0029714
7.85587e-06
2.25567e-06
6.86197e-06
0.000202543
0.000634516
8.82756e-05
5.6339e-06
0.000806429
0.000290974
0.000268041
0.000272027
0.000415648
0.0022238
0.00187262
0.000778344
0.000428582
-0.00150795
-0.00297107
-0.00297097
0.00113021
-0.00214488
-0.00259192
-0.00434922
-0.00171884
0.000614747
-0.000134199
-0.00172224
0.00278182
0.00211476
0.00212544
0.00208185
0.000325699
0.00221005
-1.175e-05
-9.38031e-05
-0.000564301
0.000290081
0.00028542
0.000446731
-6.09302e-05
0.000552637
-0.00118695
-0.00101495
3.50668e-05
2.87708e-05
-5.71816e-05
2.63777e-05
0.000498146
0.000988918
8.38117e-05
2.86494e-05
1.12281e-05
4.77728e-05
-6.85775e-06
1.39979e-06
-0.0051519
0.00320427
-0.00701224
-0.00393465
0.000421522
0.00169398
0.000411854
0.00179472
-0.00389619
-0.00293304
-0.0019057
-0.00270914
-0.000702924
0.000916798
0.000799137
0.00193743
0.00205818
0.00357157
0.00305215
-0.000244488
0.000656221
0.00175174
-0.00171915
-0.00171616
-0.000939209
0.00311447
0.000306919
-0.00108972
-0.0110379
0.000843892
0.000770484
0.00102682
0.00514489
0.0031998
-0.00131209
-0.00196089
-0.00432988
-0.0125262
-9.52548e-06
-1.1078e-05
-1.49656e-05
0.00028175
0.000466843
0.00307156
0.000434386
0.00201281
0.00430608
0.00116039
0.00140306
-0.003367
-0.00256885
-0.00238819
-0.00357617
0.00355313
0.00353428
0.00388649
-1.63324e-05
-0.00675347
0.00217576
0.00177737
-0.000548908
-0.00082441
-0.000640115
-0.000778703
0.000264167
0.000777087
0.00335199
0.00471643
-1.56429e-05
-5.69772e-06
0.00220789
0.00276612
0.000680151
0.000278718
0.000718824
0.000910179
-0.00416237
-0.00297232
-0.000612503
-0.00055021
7.75243e-06
0.000200352
-0.00201782
-0.00166971
-0.00131585
-0.00285275
-0.00375234
-0.00378005
-0.00225853
-0.00440553
-0.00400903
-0.0022231
-0.0027426
-0.000275784
0.00322069
0.00286883
0.000100723
6.77443e-05
9.17831e-05
0.000177522
0.000150408
-1.10303e-06
-2.21763e-06
-0.00389384
-0.00192043
4.14224e-06
4.89267e-05
0.000143417
0.000355934
0.000374804
0.00020532
5.56722e-05
1.75472e-06
0.00313915
-3.15722e-05
-7.04051e-05
-2.81759e-05
-2.91308e-05
-1.93554e-05
-0.00228653
-2.17361e-06
7.85594e-06
-3.84794e-06
2.90536e-06
-0.00475344
0.00045262
0.000367795
1.26288e-06
0.000542548
0.000566673
0.000305724
0.000772135
0.000584509
0.000582546
0.000632251
0.000829298
0.000769787
-0.000366503
-1.65033e-06
6.85837e-05
-4.95875e-06
-6.30136e-06
-4.39494e-06
-0.000781784
-0.000600919
0.000628308
4.07836e-06
-1.56534e-06
-3.22047e-06
0.00399487
0.00423507
0.00284693
0.0023801
2.53648e-05
1.7264e-05
1.76157e-05
9.49358e-05
0.000303375
-0.00335272
-0.00824631
-0.00602484
-0.00279619
-0.00557215
0.00204679
-0.000164853
0.000447406
0.000584465
0.00124836
-0.0016052
-0.00426653
6.79692e-07
-0.00048913
-0.00829956
-0.000144719
-0.000263514
-0.000335326
-0.000419678
7.1108e-07
2.36282e-06
-8.50991e-05
-1.61511e-05
-1.17521e-05
-6.44227e-06
0.000521838
0.000669737
-0.0164622
-0.00694887
-3.95935e-05
-4.53627e-05
3.43934e-06
5.49725e-05
0.00350371
-0.00273972
-0.000451944
0.00139088
0.000528874
-0.00193589
-0.00216573
0.000558718
-0.00625482
-0.00232705
-0.000853749
-0.00204784
-0.00155783
2.18307e-05
-0.000672665
-0.00237593
-0.00165271
-0.000797625
-0.000666803
-0.000279991
-0.00273953
-0.00573613
-0.00500855
0.00153772
0.00405923
-4.19097e-05
0.00458267
-0.000193342
-0.00476805
1.64834e-07
0.00265869
-6.44448e-05
0.00176764
0.000500416
0.00454164
-2.85394e-06
0.00109641
0.000651587
0.000452421
-0.000567245
-0.000277787
0.000664522
0.000619111
-0.000364752
6.50609e-05
8.27865e-05
1.15856e-05
-1.74576e-06
3.36212e-07
-2.48488e-06
-0.00395308
2.03352e-06
-6.09212e-07
-1.45156e-06
-0.000193211
-0.00062307
0.00190579
0.00258337
-0.00197944
6.74441e-07
-0.000481153
-0.00055041
-0.000639934
0.000733414
0.000651651
0.00586183
0.00149545
0.000656631
0.000885317
-0.00129978
-0.00119656
-0.00821648
0.000239799
0.000611168
0.000847716
0.00414998
0.00332972
-0.000772014
-1.26731e-05
-8.41484e-05
0.00110906
0.000855744
-0.00830401
-0.00682488
0.00335627
0.000431136
0.000461927
0.000674216
-0.00400898
5.47302e-07
0.00305761
-0.00448351
-0.00259678
0.00329466
0.00191506
0.00382844
-0.0127366
-0.0181552
-0.00492025
-0.0048439
9.1976e-05
0.000284301
-0.000309525
0.000121012
-5.22935e-06
0.00442672
-0.0039705
-0.00378355
-4.18518e-06
0.000764904
0.00128953
5.55888e-06
6.49602e-06
-0.00447346
0.00774973
6.01146e-07
-0.000116945
2.02603e-05
9.10706e-06
6.99516e-06
-8.66006e-07
-1.00181e-06
0.00345905
0.00339403
-6.69012e-06
-4.19776e-06
-5.67177e-06
-6.98022e-06
2.82376e-06
0.00314768
-2.74536e-05
0.000695564
0.000328247
0.00015554
0.00096031
0.000850732
-9.96673e-05
-0.000199576
-0.000263999
0.000162424
-0.000169313
-0.000190334
0.000150848
0.000125074
0.00365517
3.41688e-06
-0.000630938
-0.000569638
-0.000541226
-1.0903e-06
4.53317e-06
2.61029e-06
0.00396392
-0.00399298
-1.49824e-06
-1.64893e-06
2.06789e-06
5.57202e-06
-9.04429e-07
0.00556636
0.00433647
0.0004583
0.000559039
-5.05714e-09
-0.00437698
-0.00505169
-2.58701e-07
5.45255e-07
1.16395e-07
0.00056635
-0.00144676
0.000487665
0.000393981
1.49072e-06
-0.00164731
-4.41231e-05
9.63074e-05
0.0011176
0.00186545
-3.04052e-07
-1.33033e-06
-0.000656897
0.000769136
0.000683467
0.000619296
0.0026461
0.0020124
0.00183854
0.00203921
0.00224051
0.00467226
-0.000526913
-1.43651e-06
-1.83823e-06
7.15695e-07
7.3498e-07
0.00760604
0.0055693
0.00755457
6.81472e-06
0.00648676
-0.00497711
-0.00499213
-8.43096e-05
-3.33482e-05
0.000612416
0.000349682
0.000188001
0.000213647
0.000332678
-0.00112429
-0.00885972
-4.1033e-06
-0.00994982
-0.00196617
-0.00381953
0.000443468
0.000187181
-0.000344661
-1.32237e-06
-3.93028e-06
3.37654e-05
0.000289288
0.00287156
0.000615782
0.000954177
-0.000138451
0.00022548
0.00746965
0.00415906
0.003991
0.00160468
0.00287827
-0.000248399
0.00252202
3.7688e-05
0.00615624
2.32507e-05
0.00337153
0.00106513
-0.000148215
0.000843828
0.000629241
-0.000435457
0.00201253
0.000728859
-1.76517e-05
0.000260575
-7.69561e-05
6.50145e-05
0.000852015
0.000246539
-0.000288145
-0.00682951
-0.000279995
-0.000379269
-0.00319515
4.70697e-05
4.25142e-05
-0.000656763
-0.000763998
-6.05535e-05
-2.74931e-05
2.31765e-06
-0.00753652
-0.00781328
-0.00685385
-0.000356548
-0.00122702
-0.000305067
-2.37712e-06
4.67474e-06
0.000323844
-0.000896543
-0.00526463
4.57343e-06
8.31352e-06
1.1065e-05
1.5524e-05
1.29474e-05
9.37119e-05
4.39085e-05
-6.39907e-06
-5.20142e-07
-7.36702e-05
-0.00016353
-0.000106873
-0.000325534
0.00197084
0.00156356
-8.99323e-06
-1.1596e-05
0.00127234
2.89593e-05
0.00198497
0.00120357
-0.000179962
-0.00583208
0.000181896
0.00190228
0.00159547
-4.42293e-06
-6.95093e-06
0.000388059
-0.000185888
-0.000130185
-0.000534639
-0.000251159
0.00171513
0.000555446
-0.0026045
0.00166314
-0.000977381
0.000566345
-0.000402214
0.000719548
0.000819163
0.00183071
0.00185175
0.000645194
0.000705113
-0.00419377
-0.00138116
0.00137816
0.000293016
-0.00346935
0.000444271
0.000336931
-0.000610668
2.62755e-05
0.0048798
-0.000752136
8.43399e-06
7.22278e-05
0.00168582
0.00256216
0.00231475
0.00250637
0.00247745
6.1075e-07
2.67944e-06
-0.0022503
-0.00569683
-0.00824319
-1.16882e-05
-0.00128714
0.000729295
3.64381e-06
0.000866576
-0.00128992
0.000119742
0.000771811
0.000385551
0.000762573
-6.43015e-06
7.67902e-06
5.44829e-06
0.000184355
0.000130597
5.45922e-06
-0.00791851
4.14908e-06
6.92232e-06
-0.00425635
-0.00339443
-0.00476342
7.30829e-06
7.8669e-06
-1.98181e-05
-0.00344598
-0.00327173
-0.00388398
-0.00340693
-0.000588102
-0.000531493
-0.000581783
0.00517592
-0.000848646
0.000530429
0.00135069
0.00120548
0.00135555
0.00189417
0.00124495
-0.0049974
-0.000484744
7.67351e-06
3.73232e-07
9.09823e-06
5.48645e-06
0.000360129
0.000384908
-0.00369479
0.00123206
1.44324e-07
-0.000615377
-2.87338e-06
7.27304e-06
0.00597106
0.00468065
0.00103212
0.000800743
-5.95813e-06
-1.09599e-05
-0.000171108
0.000454136
0.000309685
0.000621035
-0.000184549
-0.000102107
-0.000423911
-1.79131e-07
-0.000370277
0.00411929
0.00367764
0.000344519
0.000503588
1.30887e-05
-0.000754024
0.00314503
0.002301
-0.00397736
-0.000467403
0.00228058
0.00244417
0.0046761
0.00440803
0.00199317
-7.84903e-06
-3.34145e-06
0.00249338
-0.00326755
-0.00299847
0.00548483
0.00520059
-0.00353689
-0.00253902
-0.00531398
0.000505287
-0.000325133
0.00216919
-2.26506e-06
0.0043132
0.00386079
-0.0113578
-0.00545757
-0.00562001
0.00327478
0.003518
-8.79361e-06
6.89452e-07
3.24803e-05
0.000989342
0.00111975
-7.93412e-06
-0.00398983
-0.00594732
-0.000426472
-0.00428555
-0.000148428
0.00479922
-0.0069131
-0.00066598
-0.000318619
0.00431718
-0.00488596
0.00381244
0.00171866
0.00351975
0.00556169
-0.00695649
-0.00319739
-0.00120134
0.00298008
-0.00229457
0.00671359
0.00252948
0.00404255
0.00964664
0.00773079
-0.00307345
0.0166787
-0.012155
0.000245519
0.00883912
0.00643684
0.000264492
0.00073475
2.984e-05
5.29157e-06
0.00414075
0.00193429
0.00148372
-0.00306119
-0.00240514
0.0151423
-0.00106428
-0.0121675
-0.00979293
0.000734378
-0.00811897
-0.000119254
-0.00130793
-0.000396581
0.000939904
0.00463883
-0.000268253
0.00132731
-0.00381178
-0.000860535
0.00544803
0.00431956
0.00162464
0.00115515
0.0110647
-0.00411218
-0.00345555
-0.00141175
0.00547253
0.000333478
0.000625613
-0.00605958
0.0115343
0.00286571
0.00310263
0.000243832
-0.00750088
-0.00165099
-0.0112831
-0.00933607
-1.58625e-05
-0.000754915
-0.0117672
0.00305076
-0.0134398
0.000281544
0.00247386
0.00151016
0.00783836
-0.00569359
0.00847947
0.00189563
0.0118318
0.00468904
0.000199023
-0.00163106
0.0129293
-0.016633
0.000573537
0.00216008
0.0041916
-0.00492792

SCALARS S_zz double 1
LOOKUP_TABLE  table7
1.05148e-153
1.05148e-153
-0.0902048
-0.0722479
1.05148e-153
1.05148e-153
1.05148e-153
0.0240961
1.05148e-153
1.05148e-153
1.05148e-153
0.034154
1.05148e-153
1.05148e-153
1.05148e-153
1.05148e-153
1.05148e-153
-0.00895332
-0.0146236
1.05148e-153
1.05148e-153
-0.00718277
1.05148e-153
1.05148e-153
1.05148e-153
-0.0142232
1.05148e-153
1.05148e-153
-2.65875e-07
-1.39229e-06
1.50873e-06
2.94824e-08
-1.94044e-07
1.73386e-07
3.75223e-06
3.34423e-06
0.000597376
-0.000474005
0.000111886
-1.96408e-05
-2.29686e-07
1.84649e-07
-0.00163074
-0.00245432
1.05148e-153
1.05148e-153
1.05148e-153
1.05148e-153
1.05148e-153
1.05148e-153
1.05148e-153
1.05148e-153
1.05148e-153
1.05148e-153
1.05148e-153
1.05148e-153
1.05148e-153
1.05148e-153
1.05148e-153
1.05148e-153
1.05148e-153
1.05148e-153
1.05148e-153
1.05148e-153
1.05148e-153
1.05148e-153
-0.0748592
-0.065681
-0.0637968
-0.0662772
-0.0673159
-0.0657468
-0.0691529
-0.0752739
-0.0702005
-0.0621269
-0.0661574
-0.0672557
-0.0684151
-0.070283
1.05148e-153
1.05148e-153
1.05148e-153
1.05148e-153
1.05148e-153
1.05148e-153
1.05148e-153
1.05148e-153
1.05148e-153
1.05148e-153
1.05148e-153
1.05148e-153
1.05148e-153
1.05148e-153
1.05148e-153
1.05148e-153
1.05148e-153
1.05148e-153
1.05148e-153
1.05148e-153
1.05148e-153
1.05148e-153
1.05148e-153
1.05148e-153
1.05148e-153
1.05148e-153
1.05148e-153
1.05148e-153
1.05148e-153
1.05148e-153
1.05148e-153
1.05148e-153
1.05148e-153
1.05148e-153
1.05148e-153
0.0102113
-0.0172216
-0.0437517
-0.0563355
-0.0224358
0.000443127
1.05148e-153
1.05148e-153
1.05148e-153
1.05148e-153
1.05148e-153
1.05148e-153
1.05148e-153
1.05148e-153
1.05148e-153
1.05148e-153
1.05148e-153
1.05148e-153
1.05148e-153
1.05148e-153
1.05148e-153
1.05148e-153
1.05148e-153
1.05148e-153
1.05148e-153
1.05148e-153
1.05148e-153
1.05148e-153
1.05148e-153
1.05148e-153
1.05148e-153
1.05148e-153
1.05148e-153
1.05148e-153
1.05148e-153
1.05148e-153
1.05148e-153
1.05148e-153
1.05148e-153
1.05148e-153
1.05148e-153
1.05148e-153
1.05148e-153
1.05148e-153
1.05148e-153
1.05148e-153
1.05148e-153
1.05148e-153
1.05148e-153
1.05148e-153
1.05148e-153
1.05148e-153
1.05148e-153
1.05148e-153
1.05148e-153
1.05148e-153
0.0337209
0.0296587
0.0344334
0.0309722
0.0328755
0.0331622
0.0347792
0.0350944
0.0294416
0.026489
0.0234748
0.0234309
0.024406
0.0237363
1.05148e-153
1.05148e-153
1.05148e-153
1.05148e-153
1.05148e-153
1.05148e-153
1.05148e-153
1.05148e-153
1.05148e-153
1.05148e-153
1.05148e-153
1.05148e-153
1.05148e-153
1.05148e-153
1.05148e-153
1.05148e-153
1.05148e-153
1.05148e-153
1.05148e-153
1.05148e-153
1.05148e-153
1.05148e-153
1.05148e-153
1.05148e-153
1.05148e-153
1.05148e-153
1.05148e-153
1.05148e-153
1.05148e-153
1.05148e-153
1.05148e-153
1.05148e-153
1.05148e-153
1.05148e-153
1.05148e-153
1.05148e-153
1.05148e-153
1.05148e-153
1.05148e-153
1.05148e-153
1.05148e-153
1.05148e-153
1.05148e-153
1.05148e-153
1.05148e-153
-0.00703918
-0.00611623
-0.00548327
-0.00517154
-0.00422822
-0.00348082
-0.00331434
-0.00378347
-0.00408024
-0.00578166
-0.00683576
-0.00913832
-0.0114735
-0.0136354
1.05148e-153
1.05148e-153
1.05148e-153
1.05148e-153
1.05148e-153
1.05148e-153
1.05148e-153
1.05148e-153
1.05148e-153
1.05148e-153
1.05148e-153
1.05148e-153
1.05148e-153
1.05148e-153
1.05148e-153
1.05148e-153
1.05148e-153
1.05148e-153
1.05148e-153
1.05148e-153
1.05148e-153
1.05148e-153
1.05148e-153
1.05148e-153
1.05148e-153
1.05148e-153
1.05148e-153
1.05148e-153
1.05148e-153
1.05148e-153
1.05148e-153
1.05148e-153
1.05148e-153
1.05148e-153
1.05148e-153
1.05148e-153
1.05148e-153
1.05148e-153
1.05148e-153
1.05148e-153
1.05148e-153
1.05148e-153
1.05148e-153
1.05148e-153
1.05148e-153
1.05148e-153
1.05148e-153
1.05148e-153
1.05148e-153
-0.00751479
-0.00853411
-0.00885196
-0.0150682
-0.0150306
-0.0138242
1.05148e-153
1.05148e-153
1.05148e-153
1.05148e-153
1.05148e-153
1.05148e-153
1.05148e-153
1.05148e-153
1.05148e-153
1.05148e-153
1.05148e-153
1.05148e-153
1.05148e-153
1.05148e-153
1.05148e-153
1.05148e-153
1.05148e-153
1.05148e-153
1.05148e-153
1.05148e-153
1.05148e-153
1.05148e-153
1.05148e-153
1.05148e-153
1.05148e-153
1.05148e-153
1.05148e-153
1.05148e-153
1.05148e-153
1.05148e-153
1.05148e-153
1.05148e-153
1.05148e-153
1.05148e-153
1.05148e-153
-0.00845884
-0.00688351
-0.0068135
-0.00519622
-0.0040006
-0.00269182
-0.0021838
-0.0019114
-0.00209131
-0.00296074
-0.00310201
-0.00431284
-0.00511321
-0.00566384
1.05148e-153
1.05148e-153
1.05148e-153
1.05148e-153
1.05148e-153
1.05148e-153
1.05148e-153
1.05148e-153
1.05148e-153
1.05148e-153
1.05148e-153
1.05148e-153
1.05148e-153
1.05148e-153
1.05148e-153
1.05148e-153
1.05148e-153
1.05148e-153
1.05148e-153
1.05148e-153
1.05148e-153
1.05148e-153
-3.15489e-07
-3.9513e-07
-4.09966e-07
-7.58927e-07
-8.37754e-07
-8.19591e-07
-1.14343e-06
-8.24649e-07
-2.24451e-07
3.44242e-07
1.17167e-06
1.02945e-06
7.47079e-07
6.72946e-07
5.21915e-07
3.56145e-07
2.00766e-07
1.89089e-07
2.15493e-08
-6.61059e-08
-7.04538e-08
-2.33605e-07
-1.62471e-07
-7.56231e-08
-1.00605e-07
6.8901e-08
2.20789e-07
1.91776e-08
-1.23783e-07
-9.0144e-08
-2.26695e-07
-2.2926e-07
-3.79349e-07
-1.01926e-06
-1.70485e-06
-4.70806e-07
-4.94458e-07
1.33527e-06
1.18656e-07
1.06382e-06
4.14476e-06
1.83274e-06
5.81585e-07
2.06732e-07
5.84707e-06
2.28367e-05
5.48507e-05
0.000110592
0.000268086
0.000360631
0.000167477
-4.30592e-05
-0.000323026
-0.000170029
-5.18541e-05
-1.58979e-05
-1.51789e-05
-7.29113e-06
0.000503039
0.000234203
0.000125365
0.000115282
6.97467e-05
6.85415e-05
7.4128e-05
3.63219e-05
-2.37409e-05
-0.000108145
-0.000264198
-0.000407025
-7.09343e-05
-8.48207e-05
-0.000350762
-0.0011152
-0.00358099
-0.00635986
-0.000540255
0.000116245
0.000219785
0.000191233
0.000144481
9.70396e-05
6.22979e-05
3.98053e-05
2.42482e-05
1.36418e-05
7.48109e-06
3.92507e-06
2.63846e-06
-4.17279e-07
-4.11002e-07
-5.79984e-07
-3.44113e-07
-1.25073e-08
-1.11752e-07
-2.12012e-07
-6.6208e-07
-1.59516e-06
-1.90938e-06
-2.28046e-06
-2.52637e-06
-2.59735e-06
-2.72279e-06
-1.90525e-06
2.1886e-07
6.89771e-07
1.39325e-06
1.51641e-06
1.74617e-06
1.93705e-06
1.87671e-06
1.76405e-06
1.5767e-06
-1.28751e-07
5.10671e-08
2.86431e-08
-2.30968e-08
8.74363e-08
-2.35389e-07
-3.31978e-07
-3.50837e-07
-7.35782e-07
-2.17354e-06
-2.6643e-06
-2.12288e-06
-5.55986e-06
-9.11796e-06
-1.4148e-05
-2.11184e-05
-3.00339e-05
-4.78262e-05
-7.63773e-05
-0.000121009
-0.000193074
-0.000325738
-0.000525089
-0.000762482
-0.000996298
-0.0010673
-0.000779393
-0.000219113
0.00065232
0.00190356
0.00363064
0.00531368
0.00729936
0.00771049
0.00896133
0.0117313
0.0122862
0.014755
0.0150017
0.0138434
0.0110135
0.00577615
0.00118518
-0.0032294
-0.00218006
-0.00235504
-0.00131685
-0.0017651
-0.00350694
-0.00361575
-0.00358119
-0.00355147
-0.00355143
-0.00377499
-0.00380214
-0.00354985
-0.00265315
-0.000252898
0.00575293
0.0113254
0.0140905
0.0138115
0.0125001
0.0113089
0.010167
0.0087259
0.00755892
0.00668913
0.00574215
0.00458235
0.0035597
0.00274358
0.00171007
0.000879707
0.00045223
0.000234486
0.000125404
8.5822e-05
0.000104495
6.21458e-05
7.16316e-05
-0.0850179
-0.0518618
-0.0268885
-0.00873487
-0.00616878
-0.019573
-0.0411361
-0.0662778
0.000250994
-0.0100166
-0.0103782
-0.010307
-0.00947624
-0.00833498
-0.00754714
-0.00649292
-0.00594455
-0.00567816
-0.00520733
-0.00460384
-0.00549404
-0.0067047
-0.00793497
-0.00933608
-0.0103058
-0.00993684
-0.00665329
0.006494
1.05148e-153
1.05148e-153
1.05148e-153
1.05148e-153
1.05148e-153
1.05148e-153
1.05148e-153
1.05148e-153
1.05148e-153
1.05148e-153
1.05148e-153
1.05148e-153
1.05148e-153
1.05148e-153
1.05148e-153
1.05148e-153
1.05148e-153
1.05148e-153
1.05148e-153
1.05148e-153
1.05148e-153
1.05148e-153
1.05148e-153
1.05148e-153
1.05148e-153
1.05148e-153
1.05148e-153
1.05148e-153
1.05148e-153
1.05148e-153
1.05148e-153
1.05148e-153
1.05148e-153
1.05148e-153
1.05148e-153
1.05148e-153
1.05148e-153
1.05148e-153
1.05148e-153
1.05148e-153
1.05148e-153
1.05148e-153
1.05148e-153
1.05148e-153
1.05148e-153
1.05148e-153
1.05148e-153
1.05148e-153
1.05148e-153
1.05148e-153
1.05148e-153
1.05148e-153
1.05148e-153
1.05148e-153
1.05148e-153
1.05148e-153
1.05148e-153
1.05148e-153
1.05148e-153
1.05148e-153
1.05148e-153
1.05148e-153
1.05148e-153
1.05148e-153
1.05148e-153
1.05148e-153
1.05148e-153
1.05148e-153
1.05148e-153
1.05148e-153
1.05148e-153
1.05148e-153
1.05148e-153
1.05148e-153
1.05148e-153
1.05148e-153
1.05148e-153
1.05148e-153
1.05148e-153
1.05148e-153
1.05148e-153
1.05148e-153
1.05148e-153
1.05148e-153
1.05148e-153
1.05148e-153
1.05148e-153
1.05148e-153
1.05148e-153
1.05148e-153
1.05148e-153
1.05148e-153
1.05148e-153
1.05148e-153
1.05148e-153
1.05148e-153
1.05148e-153
1.05148e-153
1.05148e-153
1.05148e-153
1.05148e-153
1.05148e-153
1.05148e-153
1.05148e-153
1.05148e-153
1.05148e-153
1.05148e-153
1.05148e-153
1.05148e-153
1.05148e-153
1.05148e-153
1.05148e-153
1.05148e-153
1.05148e-153
1.05148e-153
1.05148e-153
1.05148e-153
1.05148e-153
1.05148e-153
1.05148e-153
1.05148e-153
1.05148e-153
1.05148e-153
1.05148e-153
1.05148e-153
1.05148e-153
1.05148e-153
1.05148e-153
1.05148e-153
1.05148e-153
1.05148e-153
1.05148e-153
1.05148e-153
1.05148e-153
1.05148e-153
1.05148e-153
1.05148e-153
1.05148e-153
1.05148e-153
1.05148e-153
1.05148e-153
1.05148e-153
1.05148e-153
1.05148e-153
1.05148e-153
1.05148e-153
1.05148e-153
1.05148e-153
1.05148e-153
1.05148e-153
1.05148e-153
1.05148e-153
1.05148e-153
1.05148e-153
1.05148e-153
1.05148e-153
1.05148e-153
1.05148e-153
1.05148e-153
1.05148e-153
1.05148e-153
1.05148e-153
1.05148e-153
1.05148e-153
1.05148e-153
1.05148e-153
1.05148e-153
1.05148e-153
1.05148e-153
1.05148e-153
1.05148e-153
1.05148e-153
1.05148e-153
1.05148e-153
1.05148e-153
1.05148e-153
1.05148e-153
1.05148e-153
1.05148e-153
1.05148e-153
1.05148e-153
1.05148e-153
1.05148e-153
1.05148e-153
1.05148e-153
1.05148e-153
1.05148e-153
1.05148e-153
1.05148e-153
1.05148e-153
1.05148e-153
1.05148e-153
1.05148e-153
1.05148e-153
1.05148e-153
1.05148e-153
1.05148e-153
1.05148e-153
1.05148e-153
1.05148e-153
1.05148e-153
1.05148e-153
1.05148e-153
1.05148e-153
1.05148e-153
1.05148e-153
1.05148e-153
1.05148e-153
1.05148e-153
1.05148e-153
1.05148e-153
1.05148e-153
1.05148e-153
1.05148e-153
1.05148e-153
1.05148e-153
1.05148e-153
1.05148e-153
1.05148e-153
1.05148e-153
1.05148e-153
1.05148e-153
1.05148e-153
1.05148e-153
1.05148e-153
1.05148e-153
1.05148e-153
1.05148e-153
1.05148e-153
1.05148e-153
1.05148e-153
1.05148e-153
1.05148e-153
1.05148e-153
1.05148e-153
1.05148e-153
1.05148e-153
1.05148e-153
1.05148e-153
1.05148e-153
1.05148e-153
1.05148e-153
1.05148e-153
1.05148e-153
1.05148e-153
1.05148e-153
1.05148e-153
1.05148e-153
1.05148e-153
1.05148e-153
1.05148e-153
1.05148e-153
1.05148e-153
1.05148e-153
1.05148e-153
1.05148e-153
1.05148e-153
1.05148e-153
1.05148e-153
1.05148e-153
1.05148e-153
1.05148e-153
1.05148e-153
1.05148e-153
1.05148e-153
1.05148e-153
1.05148e-153
1.05148e-153
1.05148e-153
1.05148e-153
1.05148e-153
1.05148e-153
1.05148e-153
1.05148e-153
1.05148e-153
1.05148e-153
1.05148e-153
1.05148e-153
1.05148e-153
1.05148e-153
1.05148e-153
1.05148e-153
1.05148e-153
1.05148e-153
1.05148e-153
1.05148e-153
1.05148e-153
1.05148e-153
1.05148e-153
1.05148e-153
1.05148e-153
1.05148e-153
1.05148e-153
1.05148e-153
0.00147351
0.00505243
0.00621078
0.00614105
-7.23079e-05
-0.00110071
-0.00338547
-0.00338496
-0.000175392
-0.00121087
0.000675583
0.00721201
0.00532064
0.00637606
-0.00923125
-0.00753558
-0.00996657
-0.00939486
-0.00677129
-0.00586548
-0.00452105
-0.00645181
-0.00711777
-0.00650206
-0.00567799
-0.00559242
-0.00562615
-0.00892011
-0.0255037
-0.0188458
-0.0166654
-0.016376
-0.0149492
-0.0112944
-0.0114414
-0.0126423
-0.0165767
-0.0121192
-0.0138076
-0.016926
-0.0199584
-0.0264535
1.05148e-153
1.05148e-153
1.05148e-153
1.05148e-153
1.05148e-153
1.05148e-153
1.05148e-153
1.05148e-153
1.05148e-153
1.05148e-153
1.05148e-153
1.05148e-153
1.05148e-153
1.05148e-153
1.05148e-153
1.05148e-153
1.05148e-153
1.05148e-153
1.05148e-153
1.05148e-153
1.05148e-153
1.05148e-153
1.05148e-153
1.05148e-153
1.05148e-153
1.05148e-153
1.05148e-153
1.05148e-153
1.05148e-153
1.05148e-153
1.05148e-153
1.05148e-153
1.05148e-153
1.05148e-153
1.05148e-153
1.05148e-153
1.05148e-153
1.05148e-153
1.05148e-153
1.05148e-153
1.05148e-153
1.05148e-153
1.05148e-153
1.05148e-153
1.05148e-153
1.05148e-153
1.05148e-153
1.05148e-153
1.05148e-153
1.05148e-153
1.05148e-153
1.05148e-153
1.05148e-153
1.05148e-153
1.05148e-153
1.05148e-153
1.05148e-153
1.05148e-153
1.05148e-153
1.05148e-153
1.05148e-153
1.05148e-153
1.05148e-153
1.05148e-153
1.05148e-153
1.05148e-153
1.05148e-153
1.05148e-153
1.05148e-153
1.05148e-153
1.05148e-153
1.05148e-153
1.05148e-153
1.05148e-153
1.05148e-153
1.05148e-153
1.05148e-153
1.05148e-153
1.05148e-153
1.05148e-153
1.05148e-153
1.05148e-153
1.05148e-153
1.05148e-153
1.05148e-153
1.05148e-153
1.05148e-153
1.05148e-153
1.05148e-153
1.05148e-153
1.05148e-153
1.05148e-153
1.05148e-153
1.05148e-153
1.05148e-153
1.05148e-153
1.05148e-153
1.05148e-153
1.05148e-153
1.05148e-153
1.05148e-153
1.05148e-153
1.05148e-153
1.05148e-153
1.05148e-153
1.05148e-153
1.05148e-153
1.05148e-153
1.05148e-153
1.05148e-153
1.05148e-153
1.05148e-153
1.05148e-153
1.05148e-153
1.05148e-153
1.05148e-153
1.05148e-153
1.05148e-153
1.05148e-153
1.05148e-153
1.05148e-153
1.05148e-153
1.05148e-153
1.05148e-153
1.05148e-153
1.05148e-153
1.05148e-153
1.05148e-153
1.05148e-153
1.05148e-153
1.05148e-153
1.05148e-153
1.05148e-153
1.05148e-153
1.05148e-153
1.05148e-153
1.05148e-153
1.05148e-153
1.05148e-153
1.05148e-153
1.05148e-153
1.05148e-153
1.05148e-153
1.05148e-153
1.05148e-153
1.05148e-153
1.05148e-153
1.05148e-153
1.05148e-153
1.05148e-153
1.05148e-153
1.05148e-153
1.05148e-153
1.05148e-153
1.05148e-153
1.05148e-153
1.05148e-153
1.05148e-153
1.05148e-153
1.05148e-153
1.05148e-153
1.05148e-153
1.05148e-153
1.05148e-153
1.05148e-153
1.05148e-153
1.05148e-153
1.05148e-153
1.05148e-153
1.05148e-153
1.05148e-153
1.05148e-153
1.05148e-153
1.05148e-153
1.05148e-153
1.05148e-153
1.05148e-153
1.05148e-153
1.05148e-153
1.05148e-153
1.05148e-153
1.05148e-153
1.05148e-153
1.05148e-153
1.05148e-153
1.05148e-153
1.05148e-153
1.05148e-153
1.05148e-153
1.05148e-153
1.05148e-153
1.05148e-153
1.05148e-153
1.05148e-153
1.05148e-153
1.05148e-153
1.05148e-153
1.05148e-153
1.05148e-153
1.05148e-153
1.05148e-153
1.05148e-153
1.05148e-153
1.05148e-153
1.05148e-153
1.05148e-153
1.05148e-153
1.05148e-153
1.05148e-153
1.05148e-153
1.05148e-153
1.05148e-153
1.05148e-153
1.05148e-153
1.05148e-153
1.05148e-153
1.05148e-153
1.05148e-153
1.05148e-153
1.05148e-153
1.05148e-153
1.05148e-153
1.05148e-153
1.05148e-153
1.05148e-153
1.05148e-153
1.05148e-153
1.05148e-153
1.05148e-153
1.05148e-153
1.05148e-153
1.05148e-153
1.05148e-153
1.05148e-153
1.05148e-153
1.05148e-153
1.05148e-153
1.05148e-153
1.05148e-153
1.05148e-153
1.05148e-153
1.05148e-153
1.05148e-153
1.05148e-153
1.05148e-153
1.05148e-153
1.05148e-153
1.05148e-153
1.05148e-153
1.05148e-153
1.05148e-153
1.05148e-153
1.05148e-153
1.05148e-153
1.05148e-153
1.05148e-153
1.05148e-153
1.05148e-153
1.05148e-153
1.05148e-153
1.05148e-153
1.05148e-153
1.05148e-153
1.05148e-153
1.05148e-153
1.05148e-153
1.05148e-153
1.05148e-153
1.05148e-153
1.05148e-153
1.05148e-153
1.05148e-153
1.05148e-153
1.05148e-153
1.05148e-153
1.05148e-153
1.05148e-153
1.05148e-153
1.05148e-153
1.05148e-153
1.05148e-153
1.05148e-153
1.05148e-153
1.05148e-153
1.05148e-153
1.05148e-153
1.05148e-153
1.05148e-153
1.05148e-153
1.05148e-153
1.05148e-153
1.05148e-153
1.05148e-153
1.05148e-153
1.05148e-153
1.05148e-153
1.05148e-153
1.05148e-153
1.05148e-153
1.05148e-153
1.05148e-153
1.05148e-153
1.05148e-153
1.05148e-153
1.05148e-153
1.05148e-153
1.05148e-153
1.05148e-153
1.05148e-153
1.05148e-153
1.05148e-153
1.05148e-153
1.05148e-153
1.05148e-153
1.05148e-153
1.05148e-153
1.05148e-153
1.05148e-153
1.05148e-153
1.05148e-153
1.05148e-153
1.05148e-153
1.05148e-153
1.05148e-153
1.05148e-153
1.05148e-153
1.05148e-153
1.05148e-153
1.05148e-153
1.05148e-153
1.05148e-153
1.05148e-153
1.05148e-153
1.05148e-153
1.05148e-153
1.05148e-153
1.05148e-153
1.05148e-153
1.05148e-153
1.05148e-153
1.05148e-153
1.05148e-153
1.05148e-153
1.05148e-153
1.05148e-153
1.05148e-153
1.05148e-153
1.05148e-153
1.05148e-153
1.05148e-153
1.05148e-153
1.05148e-153
1.05148e-153
1.05148e-153
1.05148e-153
1.05148e-153
1.05148e-153
1.05148e-153
1.05148e-153
1.05148e-153
1.05148e-153
1.05148e-153
1.05148e-153
1.05148e-153
1.05148e-153
1.05148e-153
1.05148e-153
1.05148e-153
1.05148e-153
1.05148e-153
1.05148e-153
1.05148e-153
1.05148e-153
1.05148e-153
1.05148e-153
1.05148e-153
1.05148e-153
1.05148e-153
1.05148e-153
1.05148e-153
1.05148e-153
1.05148e-153
1.05148e-153
1.05148e-153
1.05148e-153
1.05148e-153
1.05148e-153
1.05148e-153
1.05148e-153
1.05148e-153
1.05148e-153
1.05148e-153
1.05148e-153
1.05148e-153
1.05148e-153
1.05148e-153
1.05148e-153
1.05148e-153
1.05148e-153
1.05148e-153
1.05148e-153
1.05148e-153
1.05148e-153
1.05148e-153
1.05148e-153
1.05148e-153
1.05148e-153
1.05148e-153
1.05148e-153
1.05148e-153
1.05148e-153
1.05148e-153
1.05148e-153
1.05148e-153
1.05148e-153
1.05148e-153
1.05148e-153
1.05148e-153
1.05148e-153
1.05148e-153
1.05148e-153
1.05148e-153
1.05148e-153
1.05148e-153
1.05148e-153
1.05148e-153
1.05148e-153
1.05148e-153
1.05148e-153
1.05148e-153
1.05148e-153
1.05148e-153
1.05148e-153
1.05148e-153
1.05148e-153
1.05148e-153
1.05148e-153
1.05148e-153
1.05148e-153
1.05148e-153
1.05148e-153
1.05148e-153
1.05148e-153
1.05148e-153
1.05148e-153
1.05148e-153
1.05148e-153
1.05148e-153
1.05148e-153
1.05148e-153
1.05148e-153
1.05148e-153
1.05148e-153
1.05148e-153
1.05148e-153
1.05148e-153
1.05148e-153
1.05148e-153
1.05148e-153
1.05148e-153
1.05148e-153
1.05148e-153
1.05148e-153
1.05148e-153
1.05148e-153
1.05148e-153
1.05148e-153
1.05148e-153
1.05148e-153
1.05148e-153
1.05148e-153
1.05148e-153
1.05148e-153
1.05148e-153
1.05148e-153
1.05148e-153
1.05148e-153
1.05148e-153
1.05148e-153
1.05148e-153
1.05148e-153
1.05148e-153
1.05148e-153
1.05148e-153
1.05148e-153
1.05148e-153
1.05148e-153
1.05148e-153
1.05148e-153
1.05148e-153
1.05148e-153
1.05148e-153
1.05148e-153
1.05148e-153
1.05148e-153
1.05148e-153
1.05148e-153
1.05148e-153
1.05148e-153
1.05148e-153
1.05148e-153
1.05148e-153
1.05148e-153
1.05148e-153
1.05148e-153
1.05148e-153
1.05148e-153
1.05148e-153
1.05148e-153
1.05148e-153
1.05148e-153
1.05148e-153
1.05148e-153
1.05148e-153
1.05148e-153
1.05148e-153
1.05148e-153
1.05148e-153
1.05148e-153
1.05148e-153
1.05148e-153
1.05148e-153
1.05148e-153
1.05148e-153
1.05148e-153
1.05148e-153
1.05148e-153
1.05148e-153
1.05148e-153
1.05148e-153
1.05148e-153
1.05148e-153
1.05148e-153
1.05148e-153
1.05148e-153
1.05148e-153
1.05148e-153
1.05148e-153
1.05148e-153
1.05148e-153
1.05148e-153
1.05148e-153
1.05148e-153
1.05148e-153
1.05148e-153
1.05148e-153
1.05148e-153
1.05148e-153
1.05148e-153
1.05148e-153
1.05148e-153
1.05148e-153
1.05148e-153
1.05148e-153
1.05148e-153
1.05148e-153
1.05148e-153
1.05148e-153
1.05148e-153
1.05148e-153
1.05148e-153
1.05148e-153
1.05148e-153
1.05148e-153
1.05148e-153
1.05148e-153
1.05148e-153
1.05148e-153
1.05148e-153
1.05148e-153
1.05148e-153
1.05148e-153
1.05148e-153
1.05148e-153
1.05148e-153
1.05148e-153
1.05148e-153
1.05148e-153
1.05148e-153
1.05148e-153
1.05148e-153
1.05148e-153
1.05148e-153
1.05148e-153
1.05148e-153
1.05148e-153
1.05148e-153
1.05148e-153
1.05148e-153
1.05148e-153
1.05148e-153
1.05148e-153
1.05148e-153
1.05148e-153
1.05148e-153
1.05148e-153
1.05148e-153
1.05148e-153
1.05148e-153
1.05148e-153
1.05148e-153
1.05148e-153
1.05148e-153
1.05148e-153
1.05148e-153
1.05148e-153
1.05148e-153
1.05148e-153
1.05148e-153
1.05148e-153
1.05148e-153
1.05148e-153
1.05148e-153
1.05148e-153
1.05148e-153
1.05148e-153
1.05148e-153
1.05148e-153
1.05148e-153
1.05148e-153
1.05148e-153
1.05148e-153
1.05148e-153
1.05148e-153
1.05148e-153
1.05148e-153
1.05148e-153
1.05148e-153
1.05148e-153
1.05148e-153
1.05148e-153
1.05148e-153
1.05148e-153
1.05148e-153
1.05148e-153
1.05148e-153
1.05148e-153
1.05148e-153
1.05148e-153
1.05148e-153
-0.00426707
-0.003048
-0.00282278
-0.0023972
-0.00231943
-0.00198237
-0.00167496
-0.0016796
-0.00180023
-0.00227674
-0.00232313
-0.00261687
-0.00363972
-0.00676508
-0.00417441
-0.00295801
-0.00238002
-0.00243365
-0.00250654
-0.00229831
-0.00222094
-0.00239733
-0.00220862
-0.0023296
-0.00227762
-0.00227887
-0.00330641
-0.0061433
-0.00486435
-0.00431127
-0.00316364
-0.00326202
-0.0035987
-0.00290839
-0.0029126
-0.00295787
-0.00306562
-0.00461814
-0.00365815
-0.00406594
-0.00718587
-0.00803993
-2.51381e-07
-3.55847e-07
-4.03397e-07
-5.15306e-07
-5.38892e-07
-8.02167e-07
-9.43218e-07
-1.26196e-07
-1.87339e-07
-1.70575e-07
-1.99537e-07
-2.87119e-07
-2.68689e-07
-2.45171e-07
-6.81757e-08
-3.81816e-08
-1.3597e-08
-1.08475e-08
1.129e-07
1.02749e-07
1.51053e-07
6.89451e-08
1.35256e-07
1.235e-07
2.90945e-07
3.99852e-07
4.44742e-07
7.13675e-07
-2.64726e-07
-1.33997e-07
-8.74419e-08
1.35418e-07
-1.79568e-07
-1.59512e-07
-9.66997e-08
-2.05218e-08
-6.64426e-08
-1.59665e-07
-3.01253e-08
-1.29413e-07
-2.35785e-07
-5.68292e-07
-1.37472e-06
-2.12323e-06
-2.49623e-08
-2.52543e-07
-3.1822e-07
-9.65195e-07
-5.76124e-08
1.93049e-07
3.22807e-07
1.01152e-06
1.09483e-07
6.39041e-07
1.658e-06
2.90609e-06
9.50809e-06
1.67416e-05
3.17482e-05
7.93579e-05
0.000207314
9.18041e-06
1.68672e-05
2.04784e-05
4.20438e-05
8.09679e-05
2.79486e-06
2.93836e-06
2.9382e-06
-2.17475e-05
-5.13071e-05
-8.71771e-06
-1.39313e-05
-3.10175e-05
-8.86686e-05
-0.00018737
0.000388078
0.00029459
0.000161201
7.92183e-05
0.00015181
0.000166787
0.000135963
9.36166e-05
2.28768e-06
2.10334e-05
6.75645e-05
8.15592e-05
-0.00023524
-9.1677e-05
-3.61923e-05
5.9035e-06
2.06304e-07
-1.64335e-07
-2.99857e-07
-3.80742e-07
-9.802e-07
-4.82556e-07
-9.38175e-07
-1.14087e-06
-6.38821e-07
-1.51994e-06
-0.000308679
-0.00106438
-0.00103878
-0.00144583
-2.9495e-06
-2.59694e-06
-7.74721e-05
-0.000166582
-0.00207304
-0.00103594
-0.00106737
-0.00253428
-0.0023433
-0.00393634
-2.07065e-06
-2.1797e-06
-1.97911e-06
-1.20409e-06
-5.09028e-07
-1.75511e-06
-0.000476275
3.26378e-06
1.4163e-05
6.24466e-05
1.72549e-06
9.93355e-05
0.000167725
0.000109582
0.000132075
4.11008e-05
2.50224e-05
6.76635e-06
3.11155e-06
-3.16596e-07
-1.13977e-08
-3.31555e-07
0.000180204
1.46908e-07
-5.28652e-07
-5.97094e-05
-0.00109859
-0.000543328
-0.000210506
-0.000166485
-3.23038e-05
-1.64819e-05
-0.00033181
-3.09302e-06
-1.36469e-06
-1.00666e-06
-5.58774e-07
-3.248e-07
-1.91721e-06
1.67529e-08
-0.00161256
-0.00155012
-0.00319114
-1.8552e-06
-0.00033897
-2.9759e-06
-0.000837491
-0.00201694
1.31569e-06
2.94758e-06
-0.000622683
-2.47396e-06
-2.65178e-06
-0.000802099
-2.83605e-06
-0.000899744
-0.00093296
-0.00107243
-2.32004e-06
-0.000431399
5.01158e-08
-0.000460148
-9.06487e-07
-4.68412e-07
3.41753e-05
1.17723e-05
4.86533e-06
5.81909e-05
-3.21966e-07
7.77913e-05
9.55386e-05
1.81674e-05
0.000113735
8.56727e-05
1.94172e-06
-7.21201e-07
-9.35843e-07
-8.91842e-07
-1.04156e-06
-3.85368e-05
-0.000751035
-0.000440271
-6.41659e-05
-0.000114375
-0.000207231
-2.07459e-05
-1.64706e-06
-9.75246e-07
-2.20944e-06
-1.75011e-08
-0.000481435
1.57239e-06
-2.13735e-06
-0.000618986
-0.000673708
-2.60865e-06
-0.000570448
-2.78193e-06
-0.000605575
-0.000653661
-2.38138e-06
-0.000540487
-1.52742e-06
-0.000723368
-0.000223236
1.25442e-06
-2.26839e-06
-0.000230887
-0.0002471
1.65029e-05
5.70537e-06
9.94909e-06
-2.57193e-06
1.48106e-06
-2.42903e-06
2.79542e-05
1.31004e-07
-1.82283e-06
-2.27501e-06
-1.67659e-06
3.76021e-05
-2.22891e-06
5.18731e-05
4.19712e-05
-0.000511988
-3.47814e-07
-0.000294625
-8.75262e-05
-5.98312e-05
-0.000526288
-3.63818e-05
-0.000137202
4.43283e-07
-1.76192e-06
-7.54662e-08
-1.16526e-06
-2.42226e-06
1.28676e-07
-0.000432976
-0.00032136
-1.72643e-06
-2.94097e-06
-0.00067375
-0.000585136
-2.35985e-06
-3.36032e-06
-0.000268637
-0.000124352
-0.000137098
-0.000380281
-0.000501025
-2.65023e-06
2.47572e-05
-1.16607e-06
-1.76945e-06
-6.79058e-06
-4.29095e-06
-9.86758e-06
-6.37708e-06
-8.48338e-06
-5.74e-06
-1.1037e-05
-3.14015e-06
-6.56126e-06
-2.00201e-05
-2.23628e-05
-3.51597e-05
-3.82508e-06
5.83417e-07
-0.000541412
-1.00626e-06
-3.11833e-06
-0.000170688
-1.8306e-05
-5.1961e-05
-3.67396e-05
-7.37034e-05
-0.000499708
-1.84332e-06
-7.7616e-07
5.16347e-07
-2.54437e-06
-0.000409459
-0.000337355
-0.000290111
-0.000205296
-9.63667e-05
-3.0236e-06
-4.04254e-06
-3.2812e-06
-7.75237e-07
-2.31543e-06
-6.52442e-06
-1.10796e-05
-1.55273e-05
-2.97134e-06
-4.97803e-06
-3.54104e-05
-2.60735e-05
-7.32968e-05
-3.87032e-05
-1.93838e-05
-4.70305e-06
-9.46167e-05
-6.74886e-05
-9.42813e-06
-2.31515e-05
-1.04299e-05
-0.000101075
-3.44173e-05
-6.17833e-05
-0.000237525
-2.08339e-06
-1.53587e-06
-7.49192e-07
-3.25296e-06
-0.000279954
-0.000187956
-0.0003494
-2.38545e-06
-3.78729e-06
-1.45913e-06
-3.34939e-06
-1.15656e-05
-9.418e-06
-1.78706e-05
-6.35269e-06
-4.51387e-06
-2.56523e-05
-6.69595e-05
-0.000132261
-8.32366e-05
-7.15517e-06
-3.95824e-06
-9.80944e-06
-1.46633e-05
-0.000134021
-0.000272058
-1.21522e-06
-4.66411e-06
-9.52755e-06
-6.69825e-06
-4.83664e-06
-0.000225923
-0.000170427
-9.75042e-07
-8.07447e-06
-4.10897e-07
-0.000557703
-3.03837e-07
-2.61737e-08
2.92731e-07
7.73226e-07
1.21383e-06
1.2166e-06
1.39563e-06
1.48921e-06
1.45405e-06
1.24948e-06
-1.25524e-07
-3.42178e-08
7.04438e-08
2.65644e-07
4.17526e-07
5.98175e-08
1.22096e-07
2.71664e-07
3.30686e-07
-1.99725e-08
-2.7285e-07
-5.45138e-07
-7.41501e-07
-7.51029e-07
-7.34499e-07
-8.34822e-07
-8.08474e-07
-5.44149e-07
-2.13182e-07
-5.81187e-07
-1.16054e-06
-1.73113e-06
-1.87785e-06
-2.04495e-06
-2.08151e-06
-1.53281e-06
-1.41366e-06
1.08254e-06
5.87736e-07
9.61682e-07
1.13786e-07
3.7741e-07
-1.27945e-06
1.55129e-06
-5.17105e-07
-1.5948e-06
-0.00047984
1.46573e-07
-1.11012e-07
-5.69004e-07
-1.17862e-06
-2.17667e-06
-2.66113e-08
-2.083e-07
3.45989e-07
5.8121e-07
1.3561e-06
1.98817e-06
2.14421e-06
1.96458e-06
1.85791e-06
1.61541e-06
1.5435e-06
9.60572e-07
4.10352e-07
-1.87645e-06
4.63284e-06
-1.15192e-06
1.2544e-05
-4.89143e-06
4.22078e-05
-7.19062e-06
9.20776e-05
-1.16644e-05
0.000172455
-1.71768e-05
0.000365627
-2.96267e-05
-5.13213e-05
-8.21205e-05
-0.000138589
-0.000266377
-0.000699279
-0.000972248
-0.00121665
-0.000978573
-0.000489526
0.000167943
0.00112382
0.00262525
0.00467835
0.00652155
0.00956928
0.00850009
0.0111758
0.013666
0.0130547
0.0186274
0.0147864
0.0127727
0.00728368
0.00374076
-0.00136109
-0.00166525
-0.00114334
-0.00083698
-0.000527257
-0.000919998
-0.00118232
0.00013954
0.000148034
0.000236017
0.000449912
0.000734393
0.0013169
0.00257751
0.00329979
0.0046848
0.00523269
0.00623548
0.00683146
0.00793917
0.00953836
0.0108848
0.0116551
0.012663
0.0164577
0.0138515
0.00715484
0.000290034
0.000582832
0.000403448
0.000234001
0.000135504
1.29618e-06
5.56036e-07
8.75937e-07
4.12893e-07
7.23364e-08
1.66813e-06
-4.54221e-07
-1.94139e-07
-0.00112447
-0.00149544
0.000162944
8.51145e-08
2.59963e-06
-1.15958e-07
0.015177
0.0149806
-0.000630899
-9.33499e-07
-7.96082e-07
-8.05473e-05
-0.000137704
0.014863
0.0102644
-0.00268179
1.97479e-06
1.38993e-06
-0.000870031
-0.000954686
0.00044512
0.00219611
0.00350252
0.00568498
0.00669202
0.0032919
0.00481372
0.00327692
0.000240331
0.000110816
0.00115806
0.00447165
0.00623548
0.00855707
0.00917666
0.000238578
7.13644e-07
0.0140002
0.0108102
-0.00230232
-0.000942599
-5.65026e-07
2.52034e-06
6.59671e-07
2.31115e-06
2.37532e-06
1.01567e-06
3.54822e-07
-4.21283e-07
-6.68646e-06
-1.04498e-05
-1.76748e-05
-4.1633e-05
-0.00046139
-0.00024056
0.000826121
0.00137
0.00436624
0.00790006
0.0175712
0.00379519
0.00406076
0.0124498
0.0167787
0.0106256
0.00302908
0.00406043
-0.00105225
-0.000526585
0.00236447
0.00907777
0.011409
0.013378
0.0158778
0.0146035
-0.00174992
0.000311608
9.02071e-05
2.08288e-06
-1.14222e-06
0.000422977
0.000491485
2.77677e-06
0.000147137
4.49221e-05
7.94469e-05
0.000263298
1.56746e-05
1.44624e-06
3.86226e-07
0.00344988
1.04539e-07
0.000209814
1.7594e-06
0.000337367
-2.13388e-07
0.00464093
-0.000540469
0.0106195
0.0149631
0.0154051
0.00899088
0.0115156
0.0142188
0.00875975
0.00788205
0.0113438
2.8193e-06
0.0160507
0.0101013
0.00908207
0.0140318
0.0109826
0.00387383
0.00996044
0.0167688
0.0041704
0.00898331
0.00848439
0.010185
0.0122501
0.0134645
0.00687418
0.006148
0.00588447
0.00584122
0.00476558
0.00311296
0.00431456
0.00292556
0.0017695
0.00180576
0.000746437
-9.20081e-07
0.00109429
7.84606e-07
-0.000433317
-4.71026e-05
2.84006e-06
4.62914e-06
0.000740999
-0.000114426
-0.000197284
2.13456e-06
-5.93457e-05
4.06446e-06
-0.000769326
2.23025e-06
-8.04006e-06
3.70552e-06
2.59179e-06
0.000482301
-0.000255625
-2.63868e-05
2.79144e-06
2.33455e-06
3.48263e-06
-0.000726696
1.99597e-06
0.00456457
0.000355591
6.92931e-07
7.81126e-07
0.000244925
2.26526e-06
0.000518608
1.93577e-06
1.33742e-05
9.29994e-05
5.63123e-05
3.44484e-05
0.000175469
3.85962e-07
1.80649e-06
8.31631e-07
2.5146e-06
0.000466893
6.41495e-06
0.00051586
2.85007e-07
8.05487e-05
7.62158e-06
0.000723957
3.20707e-06
2.90886e-06
-0.000256446
-0.000349177
0.00124423
0.000947676
0.0017091
0.00227358
-3.42305e-05
0.00266099
0.00339508
0.003938
0.00536309
0.00450982
0.0056059
0.00829077
0.00825835
0.00961784
0.00645264
0.00711692
1.87846e-06
0.00813951
0.00821202
0.00940276
0.00928093
0.0103185
0.0115525
0.012644
0.0114764
0.0136458
0.0127959
0.0168588
0.0148071
0.0191786
0.0162862
0.016039
0.0142327
0.0138577
0.0143015
0.00880721
0.0152611
0.0158254
-5.2676e-05
0.00963624
0.00978891
1.73508e-05
1.69611e-05
6.76401e-06
1.37669e-05
1.01261e-05
-0.000398481
-0.000362033
4.56059e-06
2.8254e-06
1.65006e-05
3.7395e-06
3.94379e-06
1.12881e-06
0.000368927
2.94529e-06
0.000417347
0.000304624
2.88209e-07
0.000449556
5.99872e-06
1.45123e-07
0.000215761
2.82589e-05
6.71906e-05
4.79576e-05
9.40897e-05
2.72449e-06
7.9918e-07
1.55989e-06
3.32383e-06
0.000741644
0.000886283
1.03748e-05
0.000339749
3.83359e-06
0.000800327
2.8649e-05
5.72761e-05
2.58114e-06
0.00158322
1.88929e-05
0.00138063
-3.30329e-05
0.0019669
0.00307537
1.39386e-05
0.00274421
4.52746e-05
0.00372229
0.00422684
0.00510325
0.00468522
0.00588492
0.00628476
0.0150635
0.00705407
0.00766647
0.00784955
0.00963744
0.00926974
0.0105153
0.0132298
0.01066
0.0118334
0.014531
0.0124923
0.0154781
0.0170945
0.0140312
0.0175104
0.0166756
0.0185416
0.0187515
0.0132427
0.0142091
4.90059e-06
-3.07879e-07
2.97073e-05
-0.000133774
-0.000127954
4.45118e-05
3.16846e-05
-0.000210518
6.29085e-06
2.30882e-05
3.91308e-05
4.26025e-06
4.11064e-06
0.000389236
3.21747e-06
0.000491471
0.000388889
0.000370572
2.35707e-06
0.000150244
0.000256807
3.64145e-05
4.545e-05
5.54595e-05
0.000492338
3.29102e-06
1.67195e-06
1.18479e-06
3.98628e-06
0.000904175
0.00130718
0.00110282
0.000527296
0.00163742
1.62054e-05
0.00198913
9.56325e-05
0.000130255
0.000217492
7.69174e-05
4.80402e-06
0.0024354
0.00286499
0.00349885
0.00373209
9.11606e-05
0.0049265
0.00423822
0.00605143
0.00515471
0.00666592
0.00739166
0.00782742
0.0180012
0.00916103
0.00937126
0.0106045
0.0122563
0.0103137
0.0143847
0.0117296
0.0164635
0.0142528
0.0164479
0.0151735
0.0180964
0.0176541
1.16441e-05
1.34652e-05
0.000146931
2.36459e-05
3.328e-05
-7.50163e-06
6.66599e-06
5.90038e-06
5.46121e-06
0.000495554
0.00030387
1.79678e-06
0.000445451
4.38777e-06
0.000216969
0.000162366
1.856e-05
0.0203516
8.5553e-07
0.00120814
0.00174185
0.000967549
0.00160163
0.000466548
0.00233626
0.00228206
0.000158368
0.00328531
0.00283968
1.15802e-05
0.00395768
0.00418018
0.000406303
0.00540927
0.00509018
0.00620497
0.00638956
0.00738712
0.00822015
0.0095178
0.00946314
0.0103967
0.0187642
0.018021
0.0112401
0.00976171
0.0141775
0.0128017
0.0153555
0.0154129
0.0158344
0.0186473
0.000181242
0.000267248
0.000213365
0.000616131
8.38444e-06
9.27806e-07
0.000464266
7.2367e-06
0.000409241
1.14257e-05
6.11056e-06
7.92489e-06
0.016812
0.00133731
0.00207282
0.00172387
0.0010337
0.00253504
0.00247675
0.00069579
0.00285293
0.000272788
0.00400282
0.00392716
0.00424881
0.00515978
0.00553059
0.00620925
0.00658344
0.00770383
0.00830263
0.00890144
0.0101036
0.0103756
0.0105562
0.011956
0.0127532
0.0147858
0.000527556
0.000714989
0.000396868
0.000402628
0.0150239
0.000650012
8.67945e-06
0.000579813
0.000217014
7.7031e-06
0.00075155
0.000442306
0.015384
6.42586e-05
-0.000120661
0.000303966
0.000194966
0.000637407
-0.0587917
-0.076487
-0.0718456
-0.0715464
-0.0793296
-0.0697542
-0.080231
-0.087116
-0.0772032
-0.0749599
-0.0695402
-0.0728942
-0.0717074
-0.0663157
-0.0434548
-0.0386367
-0.040315
-0.0396421
-0.0386806
-0.0383233
-0.0384219
-0.0376222
-0.0408728
-0.0400719
-0.0337529
-0.0377277
-0.0379113
-0.0492755
-0.0193549
-0.017702
-0.0184838
-0.0224381
-0.0173427
-0.0190154
-0.0190184
-0.018611
-0.0192455
-0.0203993
-0.0213457
-0.0212558
-0.0199206
-0.0231888
-0.0057648
-0.00677601
-0.00633641
-0.00552994
-0.00678847
-0.00592852
-0.00622832
-0.00610843
-0.00617546
-0.00613693
-0.00697988
-0.00693721
-0.00722462
-0.00677975
2.24796e-06
4.85026e-05
6.37214e-05
5.59113e-05
-2.97231e-05
3.20508e-06
5.99316e-05
8.14128e-05
-0.000234909
-9.55329e-05
-2.00393e-05
9.31772e-05
-0.000699679
-0.000545684
-0.000332421
5.87493e-05
-0.00254896
-0.00203611
-0.000913864
1.78246e-05
-0.00655158
-0.00411467
-0.0016907
-9.34173e-05
-0.00845249
-0.0044202
-0.00204792
-0.000147061
-0.00898447
-0.00525037
-0.00181186
0.000382945
-0.00898521
-0.00504458
-0.00159306
0.00119664
-0.00739478
-0.00452054
-0.000965309
0.00125384
-0.00416188
-0.00264799
-0.000238455
0.00261385
-0.00368487
-0.00141084
0.00119564
0.00394785
-0.00386096
-0.00145416
0.00167602
0.00483502
-0.00481782
-0.00188667
0.00233886
0.00564465
-0.00544233
-0.0018048
0.0017768
0.00635864
-0.0060453
-0.00255171
0.00274325
0.00739389
-0.00673376
-0.00160871
0.00228443
0.00850439
-0.00588012
-0.000613943
0.00426667
0.00913306
-0.00399013
0.00220258
0.00726303
0.0103216
0.00654931
0.00988016
0.0104115
0.0115214
0.0214313
0.0151412
0.0123085
0.0107647
0.00808308
0.0111322
0.00736103
0.00761685
-0.0177506
-0.00665669
0.000378532
0.002951
-0.0466394
-0.0292434
-0.0129013
-0.00309002
-0.03966
-0.0241766
-0.0120214
-0.00352663
-0.0112111
-0.00299668
0.000126165
0.00280444
0.0154311
0.0142428
0.0112345
0.00978402
0.0308879
0.0219003
0.0150617
0.0136766
0.00796735
0.014701
0.0121535
0.0136651
-0.00330631
0.00350596
0.00819364
0.0120422
-0.00670605
-0.000301174
0.00493234
0.0102077
-0.00681725
-0.00163396
0.0026543
0.00748215
-0.00563199
-0.00210326
0.00225895
0.00800016
-0.00519936
-0.00183922
0.00219533
0.00579965
-0.004338
-0.0017862
0.00205638
0.00438599
-0.00382066
-0.00220072
0.00111848
0.0039869
-0.00339257
-0.00285615
-0.000181814
0.00268411
-0.00665396
-0.00597603
-0.00219661
0.00108111
-0.0161152
-0.0104521
-0.00387775
-0.000266581
-0.0174627
-0.00949731
-0.00435746
-0.00103604
-0.0152648
-0.00917134
-0.00443759
-0.00147831
-0.0134682
-0.00820296
-0.00416863
-0.00164263
-0.00969776
-0.00610557
-0.0031057
-0.00140595
-0.00322952
-0.00275594
-0.00168091
-0.000985828
-0.00059102
-0.000845287
-0.000655674
-0.000584995
8.036e-05
-8.09878e-05
-0.000185122
-0.000299725
0.000191955
0.000111495
1.11842e-05
-0.000142808
0.00016833
0.000119589
3.35803e-05
-8.46996e-05
0.000122467
8.23316e-05
3.59751e-05
-5.08453e-05
7.47099e-05
5.65726e-05
1.53497e-05
-2.95729e-05
4.91449e-05
2.72405e-05
9.53601e-06
-1.71648e-05
2.97644e-05
1.39565e-05
4.75338e-06
-9.81766e-06
1.68114e-05
9.14031e-06
2.09878e-06
-8.20224e-06
8.99778e-06
5.56047e-06
4.61329e-07
-5.90774e-06
5.39519e-06
1.95646e-06
-4.46812e-07
-3.40019e-06
3.44938e-06
6.27221e-07
-1.30636e-06
-1.71513e-06
1.40256e-06
-1.26917e-06
-1.41866e-06
-1.29072e-06
-2.83483e-07
-1.73096e-07
-1.33507e-06
-1.35582e-06
1.19641e-07
-1.68235e-07
-1.16793e-06
-1.33167e-06
-1.09206e-07
-6.30936e-08
-4.71529e-07
-7.36625e-07
-1.66308e-07
-3.16021e-07
-2.19636e-07
-2.50436e-07
-2.52389e-07
-1.7539e-07
-1.10022e-07
-8.62396e-08
-2.55438e-07
-1.52625e-07
-8.21418e-09
5.30832e-08
-0.00369331
-0.0113355
-0.0113582
-0.0109773
-0.0100109
-0.00852851
-0.00735807
-0.00574712
-0.0050898
-0.00597976
0.00566132
-0.00868903
-0.0122018
-0.00935308
-0.0104761
-0.00808099
-0.00781228
-0.00516659
-0.00447836
-0.00573454
-0.00461855
-0.00989823
-0.0120399
-0.0106506
-0.00941698
-0.00827785
-0.00700712
-0.00638265
-0.00509051
-0.00580872
0.00538931
-0.0102563
-0.0126074
-0.0114359
-0.00974396
-0.00794614
-0.00676839
-0.00605655
-0.00496228
-0.00462149
0.001861
-0.010865
-0.0128165
-0.0117162
-0.0104529
-0.00861101
-0.00769556
-0.0063675
-0.00528052
-0.00453352
-0.00655922
-0.0132573
-0.0126401
-0.0117014
-0.0103647
-0.00846745
-0.00815829
-0.00633573
-0.00492753
-0.00497447
-0.0100938
-0.0130708
-0.0121211
-0.010874
-0.0102174
-0.00926243
-0.00878742
-0.00702476
-0.00565537
-0.00458136
0.0039345
-0.0140415
-0.0126193
-0.0130878
-0.00947432
-0.00921568
-0.00878342
-0.00703325
-0.00595264
-0.00497116
-0.000806756
-0.01402
-0.0124695
-0.0133747
-0.0101255
-0.00840011
-0.00811863
-0.00781355
-0.00618698
-0.00478458
-0.00568768
-0.0115609
-0.0141832
-0.0118802
-0.0101033
-0.00871388
-0.00766717
-0.00781171
-0.0060155
-0.00472652
0.00327093
-0.00954322
-0.0125883
-0.0118281
-0.0102571
-0.00878211
-0.00802585
-0.0073471
-0.00590876
-0.00508715
-0.00847281
-0.0121932
-0.0103583
-0.0101193
-0.00932459
-0.00844457
-0.00709912
-0.00628113
-0.00578775
-0.00537107
0.00444964
-0.0111968
-0.0106686
-0.0106909
-0.00991972
-0.00831244
-0.00739297
-0.00662142
-0.00594175
-0.00530508
-0.00851889
-0.0117386
-0.0113487
-0.0109125
-0.0099371
-0.00874343
-0.00770779
-0.00661366
-0.00570517
-0.00543154
1.05148e-153
1.05148e-153
1.05148e-153
1.05148e-153
1.05148e-153
1.05148e-153
1.05148e-153
1.05148e-153
1.05148e-153
1.05148e-153
1.05148e-153
1.05148e-153
1.05148e-153
1.05148e-153
1.05148e-153
1.05148e-153
1.05148e-153
1.05148e-153
1.05148e-153
1.05148e-153
1.05148e-153
1.05148e-153
1.05148e-153
1.05148e-153
1.05148e-153
1.05148e-153
1.05148e-153
1.05148e-153
1.05148e-153
1.05148e-153
1.05148e-153
1.05148e-153
1.05148e-153
1.05148e-153
1.05148e-153
1.05148e-153
1.05148e-153
1.05148e-153
1.05148e-153
1.05148e-153
1.05148e-153
1.05148e-153
1.05148e-153
1.05148e-153
1.05148e-153
1.05148e-153
1.05148e-153
1.05148e-153
1.05148e-153
1.05148e-153
1.05148e-153
1.05148e-153
1.05148e-153
1.05148e-153
1.05148e-153
1.05148e-153
1.05148e-153
1.05148e-153
1.05148e-153
1.05148e-153
1.05148e-153
1.05148e-153
1.05148e-153
1.05148e-153
1.05148e-153
1.05148e-153
1.05148e-153
1.05148e-153
1.05148e-153
1.05148e-153
1.05148e-153
1.05148e-153
1.05148e-153
1.05148e-153
1.05148e-153
1.05148e-153
1.05148e-153
1.05148e-153
1.05148e-153
1.05148e-153
1.05148e-153
1.05148e-153
1.05148e-153
1.05148e-153
1.05148e-153
1.05148e-153
1.05148e-153
1.05148e-153
1.05148e-153
1.05148e-153
1.05148e-153
1.05148e-153
1.05148e-153
1.05148e-153
1.05148e-153
1.05148e-153
1.05148e-153
1.05148e-153
1.05148e-153
1.05148e-153
1.05148e-153
1.05148e-153
1.05148e-153
1.05148e-153
1.05148e-153
1.05148e-153
1.05148e-153
1.05148e-153
1.05148e-153
1.05148e-153
1.05148e-153
1.05148e-153
1.05148e-153
1.05148e-153
1.05148e-153
1.05148e-153
1.05148e-153
1.05148e-153
1.05148e-153
1.05148e-153
1.05148e-153
1.05148e-153
1.05148e-153
1.05148e-153
1.05148e-153
1.05148e-153
1.05148e-153
1.05148e-153
1.05148e-153
1.05148e-153
1.05148e-153
1.05148e-153
1.05148e-153
1.05148e-153
1.05148e-153
1.05148e-153
1.05148e-153
1.05148e-153
1.05148e-153
1.05148e-153
1.05148e-153
1.05148e-153
1.05148e-153
1.05148e-153
1.05148e-153
1.05148e-153
1.05148e-153
1.05148e-153
1.05148e-153
1.05148e-153
1.05148e-153
1.05148e-153
1.05148e-153
1.05148e-153
1.05148e-153
1.05148e-153
1.05148e-153
1.05148e-153
1.05148e-153
1.05148e-153
1.05148e-153
1.05148e-153
1.05148e-153
1.05148e-153
1.05148e-153
1.05148e-153
1.05148e-153
1.05148e-153
1.05148e-153
1.05148e-153
1.05148e-153
1.05148e-153
1.05148e-153
1.05148e-153
1.05148e-153
1.05148e-153
1.05148e-153
1.05148e-153
1.05148e-153
1.05148e-153
1.05148e-153
1.05148e-153
1.05148e-153
1.05148e-153
1.05148e-153
1.05148e-153
1.05148e-153
1.05148e-153
1.05148e-153
1.05148e-153
1.05148e-153
1.05148e-153
1.05148e-153
1.05148e-153
1.05148e-153
1.05148e-153
1.05148e-153
1.05148e-153
1.05148e-153
1.05148e-153
1.05148e-153
1.05148e-153
1.05148e-153
1.05148e-153
1.05148e-153
1.05148e-153
1.05148e-153
1.05148e-153
1.05148e-153
1.05148e-153
1.05148e-153
1.05148e-153
1.05148e-153
1.05148e-153
1.05148e-153
1.05148e-153
1.05148e-153
1.05148e-153
1.05148e-153
1.05148e-153
1.05148e-153
1.05148e-153
1.05148e-153
1.05148e-153
1.05148e-153
1.05148e-153
1.05148e-153
1.05148e-153
1.05148e-153
1.05148e-153
1.05148e-153
1.05148e-153
1.05148e-153
1.05148e-153
1.05148e-153
1.05148e-153
1.05148e-153
1.05148e-153
1.05148e-153
1.05148e-153
1.05148e-153
1.05148e-153
1.05148e-153
1.05148e-153
1.05148e-153
1.05148e-153
1.05148e-153
1.05148e-153
1.05148e-153
1.05148e-153
1.05148e-153
1.05148e-153
1.05148e-153
1.05148e-153
1.05148e-153
1.05148e-153
1.05148e-153
1.05148e-153
1.05148e-153
1.05148e-153
1.05148e-153
1.05148e-153
1.05148e-153
1.05148e-153
1.05148e-153
1.05148e-153
1.05148e-153
1.05148e-153
1.05148e-153
1.05148e-153
1.05148e-153
1.05148e-153
1.05148e-153
1.05148e-153
1.05148e-153
1.05148e-153
1.05148e-153
1.05148e-153
1.05148e-153
1.05148e-153
1.05148e-153
1.05148e-153
1.05148e-153
1.05148e-153
1.05148e-153
1.05148e-153
1.05148e-153
1.05148e-153
1.05148e-153
1.05148e-153
1.05148e-153
1.05148e-153
1.05148e-153
1.05148e-153
1.05148e-153
1.05148e-153
1.05148e-153
1.05148e-153
1.05148e-153
1.05148e-153
1.05148e-153
1.05148e-153
1.05148e-153
1.05148e-153
1.05148e-153
1.05148e-153
1.05148e-153
1.05148e-153
1.05148e-153
1.05148e-153
1.05148e-153
1.05148e-153
1.05148e-153
1.05148e-153
1.05148e-153
1.05148e-153
1.05148e-153
1.05148e-153
1.05148e-153
1.05148e-153
1.05148e-153
1.05148e-153
1.05148e-153
1.05148e-153
1.05148e-153
1.05148e-153
1.05148e-153
1.05148e-153
1.05148e-153
1.05148e-153
1.05148e-153
1.05148e-153
1.05148e-153
1.05148e-153
1.05148e-153
1.05148e-153
1.05148e-153
1.05148e-153
1.05148e-153
1.05148e-153
1.05148e-153
1.05148e-153
1.05148e-153
1.05148e-153
1.05148e-153
1.05148e-153
1.05148e-153
1.05148e-153
1.05148e-153
1.05148e-153
1.05148e-153
1.05148e-153
1.05148e-153
1.05148e-153
1.05148e-153
1.05148e-153
1.05148e-153
1.05148e-153
1.05148e-153
1.05148e-153
1.05148e-153
1.05148e-153
1.05148e-153
1.05148e-153
1.05148e-153
1.05148e-153
1.05148e-153
1.05148e-153
1.05148e-153
1.05148e-153
1.05148e-153
1.05148e-153
1.05148e-153
1.05148e-153
1.05148e-153
1.05148e-153
1.05148e-153
1.05148e-153
1.05148e-153
1.05148e-153
1.05148e-153
1.05148e-153
1.05148e-153
1.05148e-153
1.05148e-153
1.05148e-153
1.05148e-153
1.05148e-153
1.05148e-153
1.05148e-153
1.05148e-153
1.05148e-153
1.05148e-153
1.05148e-153
1.05148e-153
1.05148e-153
1.05148e-153
1.05148e-153
1.05148e-153
1.05148e-153
1.05148e-153
1.05148e-153
1.05148e-153
1.05148e-153
1.05148e-153
1.05148e-153
1.05148e-153
1.05148e-153
1.05148e-153
1.05148e-153
1.05148e-153
1.05148e-153
1.05148e-153
1.05148e-153
1.05148e-153
1.05148e-153
1.05148e-153
1.05148e-153
1.05148e-153
1.05148e-153
1.05148e-153
1.05148e-153
1.05148e-153
1.05148e-153
1.05148e-153
1.05148e-153
1.05148e-153
1.05148e-153
1.05148e-153
1.05148e-153
1.05148e-153
1.05148e-153
1.05148e-153
1.05148e-153
1.05148e-153
1.05148e-153
1.05148e-153
1.05148e-153
1.05148e-153
1.05148e-153
1.05148e-153
1.05148e-153
1.05148e-153
1.05148e-153
1.05148e-153
1.05148e-153
1.05148e-153
1.05148e-153
1.05148e-153
1.05148e-153
1.05148e-153
1.05148e-153
1.05148e-153
1.05148e-153
1.05148e-153
1.05148e-153
1.05148e-153
1.05148e-153
1.05148e-153
1.05148e-153
1.05148e-153
1.05148e-153
1.05148e-153
1.05148e-153
1.05148e-153
1.05148e-153
1.05148e-153
1.05148e-153
1.05148e-153
1.05148e-153
1.05148e-153
1.05148e-153
1.05148e-153
1.05148e-153
1.05148e-153
1.05148e-153
1.05148e-153
1.05148e-153
1.05148e-153
1.05148e-153
1.05148e-153
1.05148e-153
1.05148e-153
1.05148e-153
1.05148e-153
1.05148e-153
1.05148e-153
1.05148e-153
1.05148e-153
1.05148e-153
1.05148e-153
1.05148e-153
1.05148e-153
1.05148e-153
1.05148e-153
1.05148e-153
1.05148e-153
1.05148e-153
1.05148e-153
1.05148e-153
1.05148e-153
1.05148e-153
1.05148e-153
1.05148e-153
1.05148e-153
1.05148e-153
1.05148e-153
1.05148e-153
1.05148e-153
1.05148e-153
1.05148e-153
1.05148e-153
1.05148e-153
1.05148e-153
1.05148e-153
1.05148e-153
1.05148e-153
1.05148e-153
1.05148e-153
1.05148e-153
1.05148e-153
1.05148e-153
1.05148e-153
1.05148e-153
1.05148e-153
1.05148e-153
1.05148e-153
1.05148e-153
1.05148e-153
1.05148e-153
1.05148e-153
1.05148e-153
1.05148e-153
1.05148e-153
1.05148e-153
1.05148e-153
1.05148e-153
1.05148e-153
1.05148e-153
1.05148e-153
1.05148e-153
1.05148e-153
1.05148e-153
1.05148e-153
1.05148e-153
1.05148e-153
1.05148e-153
1.05148e-153
1.05148e-153
1.05148e-153
1.05148e-153
1.05148e-153
1.05148e-153
1.05148e-153
1.05148e-153
1.05148e-153
1.05148e-153
1.05148e-153
1.05148e-153
1.05148e-153
1.05148e-153
1.05148e-153
1.05148e-153
1.05148e-153
1.05148e-153
1.05148e-153
1.05148e-153
1.05148e-153
1.05148e-153
1.05148e-153
1.05148e-153
1.05148e-153
1.05148e-153
1.05148e-153
1.05148e-153
1.05148e-153
1.05148e-153
1.05148e-153
1.05148e-153
1.05148e-153
1.05148e-153
1.05148e-153
1.05148e-153
1.05148e-153
1.05148e-153
1.05148e-153
1.05148e-153
1.05148e-153
1.05148e-153
1.05148e-153
1.05148e-153
1.05148e-153
1.05148e-153
1.05148e-153
1.05148e-153
1.05148e-153
1.05148e-153
1.05148e-153
1.05148e-153
1.05148e-153
1.05148e-153
1.05148e-153
1.05148e-153
1.05148e-153
1.05148e-153
1.05148e-153
1.05148e-153
1.05148e-153
1.05148e-153
1.05148e-153
1.05148e-153
1.05148e-153
1.05148e-153
1.05148e-153
1.05148e-153
1.05148e-153
1.05148e-153
1.05148e-153
1.05148e-153
1.05148e-153
1.05148e-153
1.05148e-153
1.05148e-153
1.05148e-153
1.05148e-153
1.05148e-153
1.05148e-153
1.05148e-153
1.05148e-153
1.05148e-153
1.05148e-153
1.05148e-153
1.05148e-153
1.05148e-153
1.05148e-153
1.05148e-153
1.05148e-153
1.05148e-153
1.05148e-153
1.05148e-153
1.05148e-153
1.05148e-153
1.05148e-153
1.05148e-153
1.05148e-153
1.05148e-153
1.05148e-153
1.05148e-153
1.05148e-153
1.05148e-153
1.05148e-153
1.05148e-153
1.05148e-153
1.05148e-153
1.05148e-153
1.05148e-153
1.05148e-153
1.05148e-153
1.05148e-153
1.05148e-153
1.05148e-153
1.05148e-153
1.05148e-153
1.05148e-153
1.05148e-153
1.05148e-153
1.05148e-153
1.05148e-153
1.05148e-153
1.05148e-153
1.05148e-153
1.05148e-153
1.05148e-153
1.05148e-153
1.05148e-153
1.05148e-153
1.05148e-153
1.05148e-153
1.05148e-153
1.05148e-153
1.05148e-153
1.05148e-153
1.05148e-153
1.05148e-153
1.05148e-153
1.05148e-153
1.05148e-153
1.05148e-153
1.05148e-153
1.05148e-153
1.05148e-153
1.05148e-153
1.05148e-153
1.05148e-153
1.05148e-153
1.05148e-153
1.05148e-153
1.05148e-153
1.05148e-153
1.05148e-153
1.05148e-153
1.05148e-153
1.05148e-153
1.05148e-153
1.05148e-153
1.05148e-153
1.05148e-153
1.05148e-153
1.05148e-153
1.05148e-153
1.05148e-153
1.05148e-153
1.05148e-153
1.05148e-153
1.05148e-153
1.05148e-153
1.05148e-153
1.05148e-153
1.05148e-153
1.05148e-153
1.05148e-153
1.05148e-153
1.05148e-153
1.05148e-153
1.05148e-153
1.05148e-153
1.05148e-153
1.05148e-153
1.05148e-153
1.05148e-153
1.05148e-153
1.05148e-153
1.05148e-153
1.05148e-153
1.05148e-153
1.05148e-153
1.05148e-153
1.05148e-153
1.05148e-153
1.05148e-153
1.05148e-153
1.05148e-153
1.05148e-153
1.05148e-153
1.05148e-153
1.05148e-153
1.05148e-153
1.05148e-153
1.05148e-153
1.05148e-153
1.05148e-153
1.05148e-153
1.05148e-153
1.05148e-153
1.05148e-153
1.05148e-153
1.05148e-153
1.05148e-153
1.05148e-153
1.05148e-153
1.05148e-153
1.05148e-153
1.19753e-05
7.82788e-06
1.06812e-05
-2.75346e-06
7.7677e-06
1.20657e-05
2.4204e-05
-6.79712e-05
2.96468e-05
6.70006e-05
2.55833e-05
0.000158275
-0.000119009
5.52626e-05
5.44794e-05
0.000107563
0.000215789
-6.64397e-05
-0.00060218
-0.00021076
-0.000133625
-0.000636563
-0.000892407
-0.000537325
-0.000376748
-0.000155959
3.94641e-07
1.95453e-08
-3.37124e-09
4.97256e-07
3.72211e-08
3.33201e-07
7.80582e-07
-6.5746e-08
2.35733e-07
8.95002e-07
6.18922e-08
4.92118e-08
1.61922e-07
2.38448e-07
-2.36464e-07
-1.70492e-07
-1.6469e-07
3.79257e-07
3.57e-07
3.90401e-07
-1.21319e-07
1.13752e-07
-1.77978e-07
-9.73675e-08
0.0105884
0.00658632
0.0123908
0.00980347
0.0143318
0.0126903
0.0150766
0.0136597
0.0128391
0.0109077
0.000177355
0.000300831
0.00018133
0.000272742
0.000115559
0.000258592
0.000218225
0.000144845
-0.00452664
0.000177898
8.18508e-05
0.019796
0.018139
0.0197837
0.0156582
0.0160864
0.0227671
0.0101123
0.00751326
-9.83595e-08
-9.07587e-08
-8.47859e-08
-4.49191e-09
5.56463e-09
-1.34024e-07
-4.31773e-08
-8.83996e-08
-2.16085e-08
-4.23191e-08
-0.000163683
-8.47752e-05
-0.000306742
-7.90785e-08
-2.20937e-07
-2.36881e-08
1.76372e-07
-1.96605e-07
2.16116e-07
-2.78349e-07
-8.82731e-08
-5.69081e-07
-4.58303e-07
-5.35439e-07
7.92642e-08
-3.08288e-08
-5.24914e-07
-6.21755e-07
-6.43562e-07
-0.000538468
-9.41335e-05
0.000121191
-0.00100916
-0.000254895
-1.58205e-05
0.000189592
-0.000528439
-0.000829287
-0.000367307
0.000195021
-0.000174717
-0.0032002
-0.00589529
0.000209369
0.000152819
3.10201e-07
-3.56971e-07
4.38488e-07
-4.84272e-08
-5.29331e-07
-3.60829e-07
-6.06687e-07
-9.38113e-07
1.40007e-05
3.36671e-07
8.21687e-06
4.45408e-06
1.46993e-05
1.18193e-05
7.97518e-06
0.0104265
0.012376
0.00678986
6.01086e-06
1.69855e-05
5.94389e-06
-0.00208189
-0.00172529
-0.001574
-0.00266103
-0.00103071
-0.00347405
-0.000299127
-0.002692
-0.00256289
-0.00544246
-0.00122488
-0.00033626
-0.0028931
-0.00343021
-0.00353603
-0.00152163
-0.00108187
-0.000415522
0.000274273
0.00608569
0.00988568
0.00418001
0.00168701
0.00476699
-0.000549179
0.0019829
0.00829833
0.00670987
0.0128122
0.0123308
-0.00422661
0.000163359
0.00011868
9.8234e-05
9.08857e-05
5.12021e-05
-5.80326e-05
0.000195521
-9.65229e-05
9.79519e-06
0.000214758
0.000157804
0.000209509
-2.94997e-05
-3.26218e-05
1.8188e-06
-9.02546e-06
-1.14256e-05
-1.0252e-05
0.00575451
0.0040263
0.00185919
0.00178319
2.33755e-05
7.12924e-06
2.77393e-05
1.43121e-05
1.19578e-05
1.52319e-05
2.47252e-06
5.7255e-06
2.58982e-06
2.52882e-06
6.09308e-07
-8.59581e-07
1.81169e-07
8.96368e-06
2.54693e-05
-6.09602e-06
1.53703e-05
2.1406e-05
2.01162e-05
8.25099e-06
2.5461e-06
7.60547e-06
-1.34176e-06
1.06743e-06
2.4924e-05
9.01154e-08
-6.73356e-05
-1.72474e-05
8.57038e-05
3.99608e-05
-3.57395e-07
6.01489e-05
7.49901e-06
1.09674e-07
-5.0748e-07
2.55428e-07
-6.28836e-07
2.15936e-07
-7.79615e-07
2.7389e-07
-1.48035e-06
1.86014e-07
1.60683e-06
-9.80878e-07
-2.40431e-07
1.02128e-07
-8.12224e-07
1.94735e-07
-5.56198e-07
1.04675e-06
5.72446e-07
-1.09461e-06
-1.66783e-06
5.54492e-05
-0.000455898
-0.00214153
-0.00265334
-0.00190292
-0.000123356
0.00143758
-0.00015408
-2.00068e-07
-2.37478e-07
4.71278e-07
-1.60282e-07
6.4889e-08
-2.47682e-08
1.13854e-06
2.48479e-08
-3.68702e-07
-1.58957e-07
1.2467e-07
-3.60117e-08
-3.58704e-07
-4.38305e-07
-3.74643e-08
-1.03056e-07
-6.86069e-07
-3.08271e-07
4.41576e-08
-2.74479e-07
-1.13488e-06
4.0015e-07
-1.23041e-06
-1.45956e-07
-5.11623e-07
-1.05505e-06
1.52078e-06
3.02521e-06
1.15883e-06
-0.00488569
2.24561e-07
4.71505e-07
4.33687e-07
5.88469e-07
6.76768e-07
0.00161862
0.00116462
-0.000971735
0.00158407
-1.57087e-06
-1.05073e-06
-3.76784e-07
-7.29592e-07
-5.40079e-07
-5.20129e-07
-0.000102007
-0.000131173
-0.000173853
-0.000135887
-0.000665605
-0.00141453
-0.00133215
0.000371465
-0.00371964
-0.000202904
0.000587198
-0.00151141
-0.000472351
-0.00293932
0.0129493
0.00706141
0.0150886
-0.00403437
0.00386374
0.00352056
-0.00428745
0.0143075
-0.000160474
-0.0081142
0.00868056
0.00270959
0.0149496
0.0143888
0.0101224
0.00412305
-0.00789965
-0.00652281
-0.00740716
0.0313026
0.0177584
0.032545
0.023609
0.00231022
-0.000341935
-0.000230217
-0.000134601
-0.000154565
4.46765e-05
0.0151066
0.013063
0.0124867
-8.87256e-06
0.000132837
2.36001e-07
-8.22257e-08
-5.63467e-08
-6.12725e-07
-6.25567e-07
-9.19134e-07
-1.36528e-07
-3.72389e-07
-0.0015634
0.00733422
-0.000988224
0.0117071
0.0111467
-0.00741656
0.0023411
0.00914317
-0.0134089
-0.00428684
-0.00373874
-0.000440321
-0.000153853
0.000144202
-8.36152e-05
6.11333e-05
-0.00049267
0.0156891
0.0146937
-0.00303974
-0.000966344
-0.000919231
-0.000716352
-0.00111137
-0.00044837
-0.000902276
-6.85234e-05
-0.000856859
1.61542e-05
-8.67309e-08
3.81416e-05
-3.27242e-05
2.65709e-05
-1.83085e-05
-1.47699e-05
-0.00538206
-0.00198594
-0.00152643
1.25878e-05
-9.56112e-05
-2.06119e-05
8.15798e-07
9.94468e-08
1.60829e-07
5.61715e-07
-6.28702e-07
3.37875e-07
8.32768e-07
-1.19933e-06
-1.22142e-06
0.0141226
0.00901212
0.00933582
0.00107781
0.00402139
0.00202204
0.000537665
-0.00223579
-0.001913
4.99205e-05
0.00370751
0.0026955
0.000732671
0.00271377
0.00233342
0.00466635
0.0214337
0.00376313
0.0139597
0.018296
0.0124434
0.027514
0.0179339
0.0273965
0.000215901
-0.00145634
1.18586e-05
4.21844e-06
5.02991e-06
-1.74226e-06
3.69856e-07
-4.27802e-06
5.22616e-06
3.6574e-06
2.02294e-06
2.95542e-06
2.76966e-06
-1.41492e-06
-1.97054e-06
-1.23685e-06
3.4583e-06
-1.92195e-07
-7.46883e-06
-8.61745e-06
-3.62664e-06
1.10066e-06
-1.61242e-07
0.00198855
-0.000582913
0.000861971
0.00165464
0.00237801
0.00376105
0.00450875
1.95234e-05
1.86846e-05
-6.79094e-06
-8.00618e-06
-7.01708e-06
-0.00199913
-0.000958923
-0.000732998
0.000485687
0.000761342
0.000513585
0.00108846
2.7751e-05
0.000468131
-0.00183478
0.000810426
-6.27723e-06
-1.16305e-05
-0.00502968
0.0142818
-0.00101842
-0.00118034
-0.00154841
-0.00279681
-0.00205508
-0.00606523
1.87171e-06
-0.0038239
-0.00508376
-0.00177126
-0.00278611
-0.00112093
-0.00159245
2.77151e-07
-1.12687e-06
-1.17102e-06
1.23429e-06
4.31692e-07
1.18686e-06
1.09092e-06
2.48346e-08
8.10809e-08
1.74004e-07
-5.73558e-07
2.12591e-06
7.32448e-07
9.86076e-07
2.11029e-07
0.00847637
0.0097115
0.00198265
0.00940588
0.010059
0.0121479
0.0127423
0.00645026
0.0135465
0.0105872
-0.000634754
0.00112037
0.00243609
-0.00902222
8.7543e-05
6.45058e-05
0.000146591
0.000139262
7.54648e-05
9.08045e-05
7.1469e-05
2.99854e-05
-0.000839139
-0.00149458
-0.00266468
-0.00148976
-0.00256996
-0.00187273
-0.00200477
-0.00440858
-0.00315515
-0.00283227
-0.0038209
-0.00159047
-0.00137057
-0.00207634
-0.0024873
-0.00089658
-0.000945046
-0.00107113
-0.000609647
-0.000661954
-0.00190882
-0.000738005
-0.000344523
-0.00036176
-0.00120354
-0.00185827
-0.00130362
-0.000161321
0.000102925
0.00143323
0.00351313
-0.000262682
-0.0004321
-0.000880317
-0.000571008
-0.000331111
-0.000148445
-0.000379795
-0.000709144
0.00107566
-0.000876867
-1.38056e-05
0.00202471
-0.0019911
-0.001004
-0.00174003
-0.00263481
-0.00325755
-0.00440105
-0.00573437
-0.00541443
-0.00149903
-0.00633301
-0.00729174
-0.00623135
-0.000157979
-0.000903606
-0.000601222
-0.00028464
-0.000646943
-0.00195346
0.000320875
-0.000914364
-3.08943e-05
-6.85335e-07
2.70801e-05
-5.68521e-05
7.98607e-06
-5.48363e-05
-3.6656e-05
1.23069e-05
-2.11695e-05
3.24914e-05
-0.00932606
0.000445262
0.00126357
0.000197907
0.00127593
-0.000681483
-0.000307027
-0.00036836
0.000726983
0.000161535
0.000616285
0.000884045
-0.000166981
-0.000521505
-0.000116947
0.000110289
6.52267e-05
2.86083e-05
-0.000110137
4.7835e-07
8.47603e-07
-8.51886e-07
-2.50056e-07
0.000878929
2.51402e-06
-6.87228e-07
2.06317e-06
0.00129091
0.00114584
0.00158132
-0.00106588
0.00145828
-0.0015954
-0.00111391
-0.00135888
-0.00125703
-0.00359707
-8.96145e-07
0.000135199
-5.79365e-05
-2.81881e-06
-0.000495729
0.00032827
0.000377676
-0.000237994
0.0184868
0.0138147
-0.000152034
0.000445698
-0.000222373
0.000184962
0.00045326
0.000344514
-0.00755964
1.1165e-06
1.74768e-06
6.09467e-07
2.09392e-06
1.16286e-06
8.97782e-07
1.48466e-08
1.18287e-06
1.04471e-06
7.39689e-07
-2.21765e-07
1.68977e-06
1.99397e-06
2.34842e-06
-3.78113e-06
-1.14262e-06
-1.22507e-05
-1.38985e-05
-8.53408e-06
-2.35101e-06
2.3948e-08
-7.1469e-08
-3.98821e-06
-6.07807e-06
-0.00194178
-0.00144755
0.00991522
0.0104126
0.00936568
0.00180918
-0.00241018
-1.66539e-05
6.18266e-08
1.04618e-08
2.58762e-07
-1.84631e-08
-1.12353e-07
3.4017e-07
-3.42228e-07
-8.49245e-08
0.00406267
2.19024e-06
5.92925e-07
1.23952e-06
1.39748e-06
1.8361e-06
7.20302e-07
4.55931e-07
2.63779e-06
1.44703e-06
9.76201e-08
1.93467e-07
3.70879e-07
-9.92718e-07
-1.63167e-06
2.1606e-06
2.39581e-06
6.75198e-06
8.55823e-06
1.42003e-06
-2.10647e-07
5.9567e-07
2.96054e-06
3.48649e-06
2.09393e-06
0.00545254
0.0108991
0.00492477
0.00730821
3.271e-06
-0.00407277
-0.00270199
-0.00461808
-0.00494751
-0.00237111
2.97541e-06
3.63392e-06
8.78917e-06
6.64e-06
0.00555349
0.00845023
0.00149015
0.00859558
0.00209346
0.00400068
0.00160035
0.00237122
0.0079148
0.00293449
0.00275469
0.00443114
-0.00255332
0.00363187
0.0038766
-0.00194687
-0.001757
0.00702221
0.00492948
0.00295518
0.00876674
0.00361066
0.00121074
0.00028147
-9.01211e-05
-0.00228211
-0.00254149
-0.00177837
0.0033302
-0.00053578
0.000884668
-0.0015432
0.00874281
0.0201766
-0.0154364
-0.0117017
0.00938497
0.00776533
0.00254927
0.00100035
-0.000119216
0.00105758
0.00465175
-0.00376508
-0.000959691
-0.00234562
-0.00323144
-7.59791e-05
-9.86752e-05
-0.000296744
-0.000342439
-0.000289647
-9.53133e-05
-0.000322704
-0.000100575
-0.00287439
-0.00649936
-0.0073255
-0.00793609
0.00506671
0.0103197
0.0129841
0.0126169
0.0137242
0.0117473
0.00744104
0.00381551
0.0097245
6.98371e-06
3.94703e-05
8.10737e-06
1.28618e-05
2.61945e-05
4.82564e-06
-1.8744e-06
0.00425028
0.00262564
0.00207874
-0.00459991
-0.00110728
-1.95036e-07
3.23741e-07
-1.08255e-06
2.43186e-06
2.59884e-06
2.50078e-06
0.00838425
2.02749e-06
-8.28794e-07
0.00535113
0.00657003
4.24314e-05
1.59984e-05
7.05297e-05
3.25708e-05
4.484e-05
4.33164e-05
-1.5983e-05
1.16201e-05
-7.47274e-06
-0.00559833
0.0081772
0.00114549
0.00218213
-9.70958e-07
-6.44212e-07
0.000436628
-0.00160999
-0.00873383
-0.00345172
-0.000499169
0.000337997
-0.000845098
-0.00220382
-0.00195976
-0.00618443
-0.00191522
-4.29101e-07
-1.72632e-07
-0.000266242
0.00211487
0.0040647
0.00370927
0.000127967
4.37689e-07
1.46149e-06
5.54875e-08
1.55526e-06
-8.75222e-07
4.39977e-07
1.21437e-07
-1.11523e-06
-1.96375e-08
4.52827e-08
-1.1021e-07
1.73091e-07
9.01969e-08
-8.81806e-07
-4.24227e-07
-1.05612e-06
-1.18931e-06
-1.59897e-06
-1.31533e-06
8.64282e-07
6.54813e-07
1.50989e-06
7.82891e-07
1.7036e-06
9.7108e-07
-1.70835e-05
2.21541e-05
-7.0075e-05
-1.91976e-05
7.85925e-05
-2.90958e-05
1.07683e-05
0.0020124
-0.0017519
0.00232268
-1.58167e-05
-6.74419e-06
-0.00736782
-0.00706163
-0.00867313
-0.00289783
-2.1928e-05
-1.02625e-06
-7.79951e-06
-2.47132e-05
-4.06553e-06
-4.08063e-07
-5.4696e-07
-8.24637e-07
-1.22207e-06
-2.04988e-07
-0.00651027
-0.00245975
-0.00306407
-0.00699578
1.54282e-07
9.1817e-05
0.000116393
5.66511e-05
2.38485e-05
0.0165903
0.0122694
0.0212773
0.0145651
0.00981498
0.00345438
0.000265176
-0.00401819
2.87847e-05
-4.06762e-05
-0.00517404
-0.00189446
-0.00278606
-3.05478e-06
-5.96453e-06
-8.31148e-06
-1.39908e-06
-2.92959e-06
-4.96238e-06
-5.57311e-06
-8.07036e-05
3.1307e-05
-3.40382e-05
-3.04459e-05
1.17073e-06
1.06909e-06
4.28044e-07
3.35817e-05
4.21742e-06
4.27892e-05
-0.000198618
4.86112e-05
-3.7467e-05
-0.000121311
0.0119346
0.0212445
0.00890504
-6.1958e-05
5.7612e-05
-1.00496e-05
0.0162868
0.0143685
0.0128346
0.0127202
5.01334e-06
1.1308e-05
1.712e-05
3.8758e-06
8.08742e-06
1.38489e-05
7.30925e-06
9.50349e-06
2.96242e-06
0.00035538
-0.00184686
0.00298037
-0.00365728
-0.00380512
-0.00199517
-0.007822
-0.00161953
-0.002017
0.0129901
4.6509e-05
2.47941e-05
-0.0064739
-0.00379432
7.60863e-05
7.06724e-05
2.66763e-05
2.46825e-05
4.53898e-07
1.42561e-07
2.51741e-07
-2.85269e-08
7.38381e-08
-3.71166e-07
-1.28116e-07
5.37343e-07
1.65893e-07
0.0159235
0.0167347
0.0137827
0.0125993
-7.86254e-07
1.52777e-07
0.0219544
0.0095548
0.00201242
0.0160146
0.00656113
0.0210639
8.46306e-07
-2.75213e-06
-0.000103216
-0.000151593
-7.49515e-06
-0.0065634
-0.000157718
-7.91096e-05
1.8644e-05
-0.00405661
8.29526e-05
-6.61978e-06
6.12703e-05
-4.64602e-05
2.82362e-05
-4.72541e-05
-7.89215e-06
2.91157e-05
2.09725e-07
1.36426e-07
-4.22956e-08
-7.4931e-08
0.00019163
0.000219737
0.000312754
0.000232723
0.015233
0.0107136
0.0167016
0.0128547
0.0142623
0.0146377
-0.00169149
-0.00239466
-0.00809039
-0.0082658
1.54778e-05
1.56497e-05
3.49393e-06
2.74687e-06
4.72592e-06
7.1487e-06
6.28025e-06
6.45532e-06
6.14927e-06
-0.00778034
3.64162e-06
0.00326358
-0.0027583
-0.0017998
-0.000744594
0.0164427
0.0117543
0.0151473
0.0217085
0.00950424
0.0162819
0.00719701
0.00878708
-0.00707486
-0.00703482
-0.00659176
0.0113687
-0.00100776
-0.00949813
-0.00812147
5.69487e-07
1.60156e-05
0.000129545
8.30749e-05
0.00123019
5.61846e-05
0.0014038
-0.00478278
6.37236e-07
1.93553e-07
4.51977e-05
7.56112e-05
6.37623e-05
0.000157708
0.000152578
0.0151665
0.0131039
0.0146276
0.0152177
0.0222622
0.0105876
0.0114355
0.00346758
0.0137239
-2.20541e-07
0.00345557
-0.0026203
0.00350591
0.00195755
-1.32524e-06
-0.00230417
-0.00243695
-0.00738316
-0.00746385
-0.0091124
-0.00189969
0.00158189
0.0025309
0.00262459
0.00269302
0.00937765
-0.0117172
-0.00654971
-0.00751895
0.0127116
-0.00153657
-0.00719217
0.0066497
0.0117219
0.014095
0.0060801
0.00966452
0.0117016
0.00360317
0.0147985
0.0158555
0.000895979
-0.00083061
0.000384962
0.000363682
9.20347e-07
4.50029e-07
1.00878e-06
1.27046e-06
0.00201748
0.000419349
-0.00115605
0.00114899
0.000263027
0.00115324
0.00219949
-6.03524e-07
-1.56661e-06
-1.94979e-06
-1.66499e-06
-4.69612e-07
-2.58946e-06
-2.38304e-06
-0.00130684
-7.2468e-05
-0.00117407
-0.000142212
-0.00924103
-0.0164698
-0.0181103
-0.00355868
0.0023339
-0.00234517
-0.00651473
-0.0345001
1.93951e-05
3.03589e-05
1.34763e-05
-1.96013e-07
1.40226e-06
1.06523e-05
-3.71996e-06
3.37049e-05
3.0036e-05
3.96647e-05
0.000222151
0.000221095
0.000242249
9.14596e-06
9.92032e-05
-6.03869e-05
-0.000193607
-0.00024196
-0.000132781
5.52996e-05
3.97786e-05
-6.26093e-05
-4.51428e-05
6.90249e-07
-0.00152152
-0.000393696
-0.000510453
-0.00102368
-0.00080892
-0.000257155
-0.00728856
0.000547467
0.000381248
0.0182437
0.00956441
-0.00172828
-0.000287501
0.00103578
0.00843111
0.00121452
-0.00358138
-0.030819
-0.025135
-0.0198203
-0.0059382
0.00371767
-0.0223091
-0.0086109
-0.0289149
-0.0277299
1.13108e-07
-1.58263e-08
-5.93965e-08
1.62441e-07
2.52689e-07
2.94683e-08
6.57034e-06
1.58908e-05
-3.14613e-07
-0.00867733
-0.000321673
-0.000384389
-0.000378657
-0.000328551
-0.00506957
-3.6015e-07
2.66862e-07
1.29924e-06
-7.65017e-07
1.21044e-07
7.09525e-07
-1.1637e-06
1.93097e-07
-2.30823e-08
-5.21362e-07
1.63931e-07
-5.0401e-07
-5.16617e-07
0.0160828
0.0035408
0.0220668
0.0257821
-0.00795876
0.0103608
0.0140841
0.0223759
0.0321895
0.0217207
-2.63904e-07
-7.78199e-07
-1.41393e-06
-1.45154e-07
-1.28287e-06
2.94839e-07
3.86541e-06
3.10506e-06
4.65629e-06
1.14671e-06
2.56894e-06
1.00033e-06
1.62592e-06
7.74006e-07
-0.00318587
-0.00511795
-0.00491659
-0.0025409
-0.00305263
-0.00294161
-0.00221612
-0.00390129
-0.00147149
-0.00259676
-0.00134503
0.00474262
-0.00396135
0.0078468
-0.00159608
4.42875e-05
-0.000159928
-0.00074234
-0.0011986
-0.000296924
-0.00136047
-0.0018856
-0.00164443
-0.00464428
-0.00162315
1.48882e-06
1.66281e-06
-4.55879e-07
0.000281119
0.000368798
0.000276325
-0.00449537
1.2738e-05
2.296e-05
0.00971238
0.00149288
0.00470981
0.00305609
0.00347435
0.0015227
0.0197032
0.0124072
0.0263169
0.00431342
0.00526106
0.00410503
-3.22376e-06
-5.61979e-06
-7.82083e-06
-2.64533e-07
-2.22148e-06
-3.58107e-06
-4.32503e-07
0.0150583
3.68972e-07
0.011681
-1.06076e-07
-2.15064e-07
0.0213535
0.0163832
-1.23963e-05
-0.00154736
-0.000542435
0.0012814
-0.00284109
0.000461202
-0.000489982
-0.00652652
0.00231318
-1.37309e-06
-0.0226811
-0.0297986
-0.0187338
-9.69193e-07
-0.00578021
0.00450999
-0.00205934
-0.00136971
-0.00126884
-0.000336589
-0.00281638
-0.00223371
-0.000955707
1.02021e-06
1.51644e-06
1.58354e-06
8.55688e-07
1.27842e-07
-1.883e-07
1.20729e-06
4.34932e-06
-6.92558e-07
-0.00839911
-2.08031e-06
-0.00645467
1.1051e-07
-2.44356e-07
-6.3811e-08
2.38575e-07
4.47942e-07
0.0110005
0.00916103
0.00874025
0.0119629
0.0383077
-1.53986e-07
0.00362513
0.00798407
-0.000419811
-0.000614141
-0.00017427
-0.000312705
-0.000211558
-0.00159359
-0.000556576
-0.000278509
-0.000245848
0.0108901
-0.000864212
-0.00063957
-0.000221886
-0.000782418
-0.000831976
-0.000757715
-0.00157486
-0.000259356
-0.000573208
-0.00106689
0.00089472
0.00156036
-0.00117924
0.00322627
0.00310199
0.00407002
-0.00154513
-0.000121934
0.0226555
0.0172297
0.00766655
0.0123629
0.0159994
0.0132538
0.00311395
0.0157793
2.08354e-06
4.8626e-07
2.51656e-06
-2.70127e-06
-6.22168e-07
7.7643e-07
-0.00422556
2.43382e-06
3.85431e-06
2.18222e-06
3.62155e-06
7.61655e-06
-3.76146e-07
9.10815e-07
-4.79021e-06
-4.71215e-06
4.21799e-06
5.22692e-06
6.97559e-06
1.70116e-05
9.5864e-06
1.90598e-05
-1.76519e-06
-8.96684e-07
1.985e-05
1.30614e-06
0.00761923
-0.00194236
-7.1616e-07
-2.39216e-07
-0.00347867
-0.0017074
-0.00161833
-0.00548375
-0.00727297
-0.00557447
-0.00238382
0.0016518
-0.00636
1.26303e-05
2.59645e-05
0.0135309
-1.44998e-06
-1.72507e-06
2.99466e-07
-7.71187e-07
3.29295e-07
-0.00932828
-0.000193792
0.00097737
0.000516001
0.000483286
0.000221803
0.00162649
0.000566354
-0.00023428
-4.37746e-05
-0.000166035
-5.00807e-05
-1.12985e-05
0.000117037
3.38346e-05
-1.04634e-06
-3.6694e-07
-6.50749e-07
-1.29156e-06
0.00533778
0.00393113
0.00348751
0.0102467
0.00821393
0.00293909
0.00726401
0.00960803
0.00304618
0.0112178
0.00514435
0.00566435
0.00224047
0.00208324
0.00569723
0.00151259
0.0067806
-0.00166422
-0.00272158
-0.00107807
1.96503e-05
-8.01682e-06
5.63442e-05
2.03651e-05
-0.000270373
-0.000681769
-0.00221335
-0.00142605
-0.000341714
2.02897e-05
-0.00176421
-0.000450781
-1.90914e-06
-9.95741e-07
-3.1292e-06
-2.97753e-06
-2.79155e-06
-2.62844e-06
-3.68502e-06
-0.00107749
-0.000524037
-0.000560614
-0.000235654
0.00019765
0.000445073
0.000323702
0.000280089
0.000322821
-0.00733176
-0.00828505
-1.31657e-06
-2.01529e-06
-2.32297e-06
-0.00410035
-0.000381558
0.00156669
0.00279887
-0.000229947
-0.000218984
-0.000347055
0.00210122
-1.2304e-06
-1.14839e-06
-4.61081e-07
-1.04821e-07
-0.00123423
-0.000833359
0.000529142
-0.0014696
0.000102119
0.000241803
0.00331454
0.00223449
-0.00131567
-0.00172464
0.00430251
-0.00182113
-0.00103627
-0.00152888
-0.0017323
-0.00295805
-0.00317257
-0.00382845
-0.00185462
-2.07699e-06
-1.25083e-06
-7.61005e-07
1.30318e-05
-9.73861e-05
-0.000304528
8.19327e-05
4.60457e-05
-0.000307046
-0.000385053
-6.91347e-05
-0.000805909
0.000131396
-0.000897374
2.62961e-07
-5.82558e-07
-2.17916e-07
3.90811e-08
-8.22537e-05
-2.5236e-05
-2.71148e-05
7.62699e-06
-0.00237432
-0.000222038
-0.000425127
-0.00122532
-0.0001071
-0.00024333
-3.25859e-08
-3.49054e-07
-3.60736e-07
-2.41995e-07
-0.00563926
-0.00140604
-1.08644e-05
-2.15873e-05
-0.00195983
-0.004136
-0.000280477
3.45896e-07
-0.0106668
-0.00739671
-0.00365551
8.0988e-07
6.69199e-07
1.01465e-06
5.4998e-07
-0.00249792
0.00273307
0.00292396
0.00687455
0.00264835
0.00272378
0.00675929
4.74394e-05
3.8224e-05
1.54932e-05
-0.00742255
-0.00571426
-3.27139e-06
-0.00309993
-0.00139707
-0.00273323
-0.0013887
0.00649801
0.00456323
0.000274304
-0.0186138
-0.00813867
0.000152007
0.000831835
0.000633793
0.000438655
0.000227259
-0.000933902
-0.000313172
0.00114221
0.00126052
0.00163701
9.66296e-05
0.000129449
0.00246539
0.000923948
-0.0017348
-0.00173488
-1.62103e-06
-5.45448e-07
-2.46837e-06
-2.7732e-06
-0.00120127
-0.000509117
-0.00124167
-0.000972038
-0.0019931
-0.0015691
-0.00330501
-0.00336172
0.00206536
0.00600499
-2.1245e-06
1.08339e-06
-1.78029e-07
-1.69614e-07
-1.74035e-06
-3.28289e-08
-3.72269e-07
2.19788e-07
-0.0207213
2.96485e-07
9.83428e-07
7.99075e-08
9.49101e-08
-9.05272e-08
-1.08567e-07
3.3341e-07
2.38607e-07
-9.55629e-07
-4.14011e-07
4.75601e-05
9.61156e-05
0.000159698
2.82138e-07
1.44488e-06
-0.000444593
-0.00068327
-0.000699622
-0.000951368
-0.00369705
0.000481981
-1.26969e-07
-2.28779e-06
4.30806e-06
-1.98987e-06
-4.20955e-05
6.89405e-07
-6.72898e-07
2.6944e-06
-7.43707e-06
-6.33046e-06
0.00581198
0.00576698
-0.00188799
0.00933558
0.016788
0.0167629
0.013178
0.016682
-2.38595e-06
-7.41569e-07
-2.15761e-06
-0.00230625
-0.00219894
0.000582434
-1.58292e-06
-0.00166634
-0.00303701
-0.003207
-0.00645587
-0.000971037
0.00825148
0.00696107
0.00301839
0.00249078
-0.00190018
-0.00250745
-0.000612305
0.00363977
-0.00117628
0.00172976
-0.00924726
-0.000657641
0.00576705
0.00647123
-0.00286491
0.00881183
0.0074396
0.00741123
0.0077259
0.00298588
0.00997733
-0.000590232
-0.000480723
0.000380773
-0.00152202
3.20004e-05
1.95008e-05
0.00115359
0.00286614
-0.00180104
-0.00154605
2.09917e-06
2.60325e-05
3.24275e-06
-3.00928e-06
0.000210074
0.00230629
-6.4413e-05
-3.99833e-05
-4.17756e-05
-3.71434e-05
2.05559e-06
-4.35453e-07
-0.00660601
0.0100443
0.021853
0.0360946
0.00130593
0.00593715
0.00287203
0.00587095
-0.00594257
-0.00535753
-0.00305445
-0.00545888
-0.00089192
0.00218104
0.00274681
0.00442809
0.00445303
0.00850752
0.00706797
-0.000119818
0.00130254
0.00246014
-0.00420282
-0.00433918
-0.00352756
0.00563237
-0.00410822
-0.00335096
-0.00565045
0.0022773
-0.00530245
-0.00192244
0.0128987
0.00466804
-0.00185807
-0.00243691
-0.00666378
-0.00769678
4.28047e-06
3.94595e-06
5.95424e-06
0.000164835
0.00484155
0.0124343
0.00704085
0.0100929
0.0106629
0.00430072
0.00662044
-0.0021937
0.000920191
-0.00131626
0.0231301
-0.00427876
-0.0047295
0.00415068
0.0152785
0.0254784
-0.0214304
-0.0311862
-0.000493934
0.000425755
0.000267826
0.000280814
-0.000187638
-0.000751824
0.0102885
0.0106652
5.49583e-06
1.70837e-06
0.011789
0.0112076
-0.00210499
-0.00176508
-0.00338408
-0.00327934
-0.00799925
-0.00578202
5.2411e-05
-3.00196e-05
2.52997e-05
1.87509e-05
-0.00263712
-0.00199196
-0.00190988
-0.00577783
-0.00682471
-0.00623577
-0.00029212
-0.00491127
-0.00838264
0.00866436
0.0140707
0.000466833
-0.00558997
0.0124852
-2.74741e-05
-1.31859e-05
1.26651e-05
-6.74891e-05
-5.20503e-05
-2.51008e-07
4.22226e-07
-0.00488531
0.00514589
3.73859e-05
-5.59368e-05
-7.82236e-05
-0.000221982
-0.000279474
-0.000255955
2.74782e-06
-6.06873e-07
0.00412549
9.5386e-06
2.30523e-05
-5.30552e-07
4.21134e-06
2.45414e-06
-0.000733203
2.89904e-06
3.51782e-06
7.82321e-06
4.57516e-07
0.0364454
-0.000358473
0.00111586
-5.02504e-07
-0.00253031
-0.000214234
0.00174869
-0.00385138
-0.00183144
-0.00160394
-0.00169525
-0.00406367
-0.00320163
0.000301469
9.66855e-05
-3.38796e-05
1.55554e-06
1.99506e-06
7.51004e-07
0.000274933
0.000290624
-0.00250049
-1.16663e-06
5.12233e-07
-1.96973e-07
0.00472454
0.00546492
-0.00666212
-0.0064632
6.30443e-06
3.2607e-06
1.32105e-06
0.000590472
0.000942907
-0.000603402
-0.00820002
-0.00581806
-0.0012864
-0.00639379
0.0108187
0.00723009
0.00103811
-0.00202947
-0.0279184
-0.00011916
-0.00956119
-4.37069e-07
-9.21529e-05
-0.00461773
1.71169e-05
-7.64561e-06
6.37725e-06
3.33767e-05
-4.28461e-07
-8.89099e-07
-0.00132711
3.62366e-06
1.45708e-06
1.62164e-07
-0.00182652
-0.00181135
0.020075
0.0183336
-2.18214e-06
4.46563e-06
-8.44174e-06
-2.36531e-05
-0.005227
-0.00657318
-0.00374901
-0.00689536
-0.00698691
-0.00300721
-0.002414
-0.00182111
-0.00800632
-0.00444803
-0.00173955
-0.0035262
-0.00424108
-0.00428132
-0.00461911
-0.00438986
-0.00392001
-0.00351398
-0.00149889
-4.12894e-05
0.00363831
-0.00520004
-0.00686932
0.00339425
0.000109732
7.17296e-05
-0.00654777
0.000137525
0.0042725
-2.61405e-07
0.0151047
-0.000658629
-0.00500844
0.0109108
-0.000729151
9.19297e-07
-0.00163622
-0.00213162
-0.00188507
-0.000317954
0.000262184
-0.000262345
-0.000251575
0.000235086
-1.86744e-05
-2.92307e-05
-3.30397e-06
5.31636e-07
-3.13925e-07
6.73933e-07
-0.00858516
-4.59e-07
3.03476e-07
4.59857e-07
3.00363e-05
0.000374538
0.00478576
0.00592895
-0.00473974
-2.64545e-07
9.40132e-05
0.000130773
7.00386e-05
-0.000143892
-0.000124802
-0.019305
0.00263276
-0.000960838
-0.00274415
-0.00154463
-0.00168818
-0.00692547
0.0122449
0.001179
0.000793819
0.00851851
0.00770451
0.000257102
4.45382e-06
-9.04657e-06
-0.00180536
-0.00168544
-0.00835213
-0.00790688
0.0121564
-0.00018293
0.0126884
-0.00148785
-0.00516453
-1.87715e-07
-0.0112375
-0.00485682
-0.00258403
0.00787283
-0.0499292
-0.0393286
-0.00299983
0.0268455
-0.0106094
-0.00955866
-3.17027e-05
-0.0001183
-0.00454269
-0.00389421
2.24034e-06
0.00856557
-0.00807688
-0.00710675
1.9001e-06
-0.00459803
-0.00214562
-1.62452e-06
-1.8391e-06
-0.00884546
-0.0456618
-2.84067e-07
-1.97425e-05
1.52505e-06
-3.62606e-06
-3.20194e-06
2.82809e-07
3.44612e-07
0.0149406
0.014798
2.41638e-06
1.38147e-06
2.0433e-06
2.78714e-06
-9.39356e-07
0.014956
1.45257e-05
-0.00106013
-0.000186999
-0.00256157
-0.00479691
-0.0034943
0.000104989
5.7489e-05
0.000105203
-7.21544e-05
-1.24895e-05
5.56321e-06
-3.83783e-05
-1.67258e-05
0.0101492
-1.11008e-06
0.000442141
0.000513645
0.000573188
1.33757e-07
-1.39894e-06
-8.83846e-07
-0.0106056
0.00591803
4.44983e-07
4.5839e-07
-6.87261e-07
-1.66522e-06
3.9673e-07
0.0122007
0.0126863
-0.00651848
-0.0267382
-1.16522e-07
-0.00549572
-0.00851007
2.50793e-09
-2.69459e-07
-1.48895e-07
-0.000174673
-0.00395059
-0.000233526
-0.000186022
-5.29896e-07
-0.00431012
6.37103e-05
-9.35689e-05
0.00336022
0.00363108
5.86092e-08
-7.96462e-07
0.000116112
-0.000500845
-0.000484958
-0.000429099
0.0132139
0.0146999
0.00581948
0.0075054
0.00639542
0.00601508
-0.00546546
2.57049e-07
1.69172e-07
-2.99747e-07
-4.12302e-07
0.0138166
0.0103871
0.011703
-1.93381e-06
0.00876056
-0.0110497
-0.0118088
-1.49462e-06
6.96982e-06
-0.00018975
-0.000151959
-5.52758e-05
-3.49461e-05
-0.000115818
-0.00147134
-0.00292999
8.81027e-07
0.0222022
-0.00270642
-0.0049836
-0.00175561
-0.000902276
0.00126444
6.262e-07
1.25864e-06
0.000974202
0.000958646
0.0129128
0.00267172
0.00302213
-0.00295016
-0.00237675
0.0112372
0.00420647
-0.00686079
-0.0235716
0.0128882
0.000153634
-0.00759585
-1.88431e-05
0.0120913
-8.31268e-05
-4.66529e-05
-0.0335763
-0.00624111
-0.0284312
-0.000349731
0.00016007
0.0062124
-0.00025947
6.72113e-05
-0.000183813
8.50271e-05
-9.95074e-05
-0.00199294
-0.0071702
-0.000190182
-0.000380712
2.40092e-05
0.000226334
-0.006737
0.00144948
2.71343e-07
0.000147341
0.000220062
8.63516e-05
7.23349e-05
-7.57845e-07
0.0219004
0.0326185
0.0391749
-0.00123899
-0.00362288
-0.00374027
-5.70594e-07
-1.29064e-06
0.00171689
0.010287
-0.0101266
-1.29907e-06
-2.40686e-06
-3.29388e-06
-4.41329e-06
-3.1214e-06
3.91463e-05
2.53773e-05
1.95141e-06
3.68126e-08
8.70654e-06
-4.28896e-05
1.3019e-05
0.000177808
0.00311371
0.00107301
2.73105e-06
3.37167e-06
-0.00437208
1.62621e-05
0.00196786
4.29375e-05
-0.00476865
-0.0116553
-0.000111114
-0.00323205
0.00503251
-2.70826e-07
1.62758e-06
-0.0004135
0.000226923
0.00013265
0.000413421
-0.00659303
-0.0191006
-0.00805182
0.0183609
-0.006459
-0.00580624
-0.00811797
0.000183071
-0.000880707
-0.000628988
0.00141884
-0.00671432
-0.000339636
-0.000547951
-0.00664678
-0.00196145
0.00425601
-0.000122108
-0.00681814
9.26178e-05
5.96668e-05
0.00030496
-6.13844e-06
0.0062178
0.000183156
1.38312e-07
-0.00402441
0.00598331
0.00291667
0.00288011
0.00614845
0.00571804
-2.36959e-07
2.37502e-07
-0.0039407
-0.00720178
-0.00834402
2.89966e-06
-0.00370667
-0.000366377
-1.23168e-06
0.00229146
-0.00397988
0.000877542
0.00321069
0.00234576
0.00298284
1.92821e-06
-2.34923e-06
-1.56286e-06
-0.00209525
-0.00122932
-1.76991e-06
0.00188601
-1.31298e-06
-2.03997e-06
0.0313647
0.0204987
0.0253216
-2.05917e-06
-2.37304e-06
0.00015613
-0.00710872
-0.00712565
-0.00430777
-0.00545567
0.000364604
0.000309306
0.000443163
0.00726646
0.000485438
-0.00749184
-0.0106991
-0.00953222
-0.00402196
-0.00942857
-0.01038
0.0157643
0.000371391
-2.26854e-06
-1.01141e-07
-2.84947e-06
-1.40873e-06
-0.00243818
-0.00196982
-0.00572624
-0.000974811
-6.25489e-08
6.92731e-05
8.64722e-07
-1.87437e-06
0.00878726
0.00779746
0.00181099
0.00216464
1.96147e-06
3.48612e-06
3.4535e-05
-0.00200956
-0.00296934
-0.000226606
2.47934e-05
0.000369068
5.11813e-05
-1.18205e-07
-5.7712e-05
0.00670976
0.00600378
0.000968866
0.00283749
-7.10284e-06
0.000326775
0.00717365
0.00627675
-0.00626968
-0.000787341
0.00864934
0.00819647
0.00251567
-0.000352963
0.00448787
2.18838e-06
1.05623e-06
0.00760535
-0.00670055
-0.00317538
-0.00894786
-0.0103509
-0.00518128
-0.00305613
-0.00426494
0.00219296
-0.00106448
0.00742022
6.45354e-07
0.00474354
-0.00629632
0.0190953
0.00369157
-0.00274804
-0.00809499
0.00479634
3.59449e-06
-2.51812e-07
-1.0855e-05
0.00353138
0.00352266
3.15205e-06
-0.00614618
-0.00690027
-0.00387278
-0.00397123
-0.000530367
0.00946986
-0.00868486
0.000780855
-0.000218145
0.00714021
-0.00621242
-0.0100288
-0.00401688
0.00943113
0.00697381
-0.00759095
-0.00340068
-0.00494276
-0.0088573
-0.00300185
-0.0312576
0.0162023
-0.00366266
0.0128201
0.0133234
-0.00484265
-0.0609579
0.0163911
0.000137771
-0.0223291
-0.0236919
9.69882e-05
-0.0448582
-0.0493151
-0.0448149
0.00150039
0.00127451
0.00524074
-0.00436092
-0.0045305
-0.0532433
-0.000195254
-0.00611102
-0.00982814
-0.00279858
0.0206041
-0.0445547
-0.0036069
-0.00390141
-0.00310121
0.00572373
5.42557e-05
-0.0066091
-0.0036916
-0.0030539
-0.0218766
-0.0116272
-0.00879374
0.00315593
-0.0463078
-0.00892033
-0.00433673
-0.00429232
-0.0194154
0.000185294
-0.00230736
-0.00611946
-0.0427363
0.00721309
0.0128099
-7.75838e-05
-0.00750837
-0.000479196
-0.0092183
-0.00946832
4.78161e-06
0.000215006
-0.00345172
-0.0131326
0.0119769
-0.00501283
0.0162175
0.00373562
-0.0476963
0.000979736
-0.0265471
-0.0423915
-0.0519458
-0.0506437
-0.0423194
-0.00719122
-0.0499872
0.0290876
-0.00498838
-0.0114151
-0.0158901
-0.00529183

SCALARS S_xy double 1
LOOKUP_TABLE  table8
6.35227e-67
6.35227e-67
-0.00299649
0.00262302
6.35227e-67
6.35227e-67
6.35227e-67
-4.63811e-06
6.35227e-67
6.35227e-67
6.35227e-67
-0.00834907
6.35227e-67
6.35227e-67
6.35227e-67
6.35227e-67
6.35227e-67
0.00253452
-0.00562829
6.35227e-67
6.35227e-67
-0.00223564
6.35227e-67
6.35227e-67
6.35227e-67
0.00263233
6.35227e-67
6.35227e-67
-1.91966e-06
-2.16829e-06
1.65515e-06
1.95425e-06
3.69268e-07
-4.77036e-07
4.30196e-05
-3.97889e-05
0.00191868
-0.001612
0.000151286
-5.46231e-05
3.53232e-07
-1.03828e-07
-0.00233176
0.000475413
6.35227e-67
6.35227e-67
6.35227e-67
6.35227e-67
6.35227e-67
6.35227e-67
6.35227e-67
6.35227e-67
6.35227e-67
6.35227e-67
6.35227e-67
6.35227e-67
6.35227e-67
6.35227e-67
6.35227e-67
6.35227e-67
6.35227e-67
6.35227e-67
6.35227e-67
6.35227e-67
6.35227e-67
6.35227e-67
0.00231586
-0.00423448
-0.00396202
-0.00591335
-0.00503005
-0.00310689
-8.38497e-05
0.00345816
0.0063576
0.0032109
0.00500229
0.00921527
0.00365476
0.00261282
6.35227e-67
6.35227e-67
6.35227e-67
6.35227e-67
6.35227e-67
6.35227e-67
6.35227e-67
6.35227e-67
6.35227e-67
6.35227e-67
6.35227e-67
6.35227e-67
6.35227e-67
6.35227e-67
6.35227e-67
6.35227e-67
6.35227e-67
6.35227e-67
6.35227e-67
6.35227e-67
6.35227e-67
6.35227e-67
6.35227e-67
6.35227e-67
6.35227e-67
6.35227e-67
6.35227e-67
6.35227e-67
6.35227e-67
6.35227e-67
6.35227e-67
6.35227e-67
6.35227e-67
6.35227e-67
6.35227e-67
0.00105301
0.001872
0.00255607
0.000606778
-0.000487871
-0.00512882
6.35227e-67
6.35227e-67
6.35227e-67
6.35227e-67
6.35227e-67
6.35227e-67
6.35227e-67
6.35227e-67
6.35227e-67
6.35227e-67
6.35227e-67
6.35227e-67
6.35227e-67
6.35227e-67
6.35227e-67
6.35227e-67
6.35227e-67
6.35227e-67
6.35227e-67
6.35227e-67
6.35227e-67
6.35227e-67
6.35227e-67
6.35227e-67
6.35227e-67
6.35227e-67
6.35227e-67
6.35227e-67
6.35227e-67
6.35227e-67
6.35227e-67
6.35227e-67
6.35227e-67
6.35227e-67
6.35227e-67
6.35227e-67
6.35227e-67
6.35227e-67
6.35227e-67
6.35227e-67
6.35227e-67
6.35227e-67
6.35227e-67
6.35227e-67
6.35227e-67
6.35227e-67
6.35227e-67
6.35227e-67
6.35227e-67
6.35227e-67
-0.00522132
0.00323985
0.00335159
0.0032769
0.000445351
-0.00287341
-0.0020612
-0.00573255
-0.0112772
-0.014358
-0.0124083
-0.015667
-0.00715839
-0.0038909
6.35227e-67
6.35227e-67
6.35227e-67
6.35227e-67
6.35227e-67
6.35227e-67
6.35227e-67
6.35227e-67
6.35227e-67
6.35227e-67
6.35227e-67
6.35227e-67
6.35227e-67
6.35227e-67
6.35227e-67
6.35227e-67
6.35227e-67
6.35227e-67
6.35227e-67
6.35227e-67
6.35227e-67
6.35227e-67
6.35227e-67
6.35227e-67
6.35227e-67
6.35227e-67
6.35227e-67
6.35227e-67
6.35227e-67
6.35227e-67
6.35227e-67
6.35227e-67
6.35227e-67
6.35227e-67
6.35227e-67
6.35227e-67
6.35227e-67
6.35227e-67
6.35227e-67
6.35227e-67
6.35227e-67
6.35227e-67
6.35227e-67
6.35227e-67
6.35227e-67
0.00133387
0.000591223
-0.000838253
-0.00205098
-0.00301573
-0.00350333
-0.00460932
-0.00519004
-0.0060953
-0.00646458
-0.00754964
-0.00832277
-0.00944222
-0.00811645
6.35227e-67
6.35227e-67
6.35227e-67
6.35227e-67
6.35227e-67
6.35227e-67
6.35227e-67
6.35227e-67
6.35227e-67
6.35227e-67
6.35227e-67
6.35227e-67
6.35227e-67
6.35227e-67
6.35227e-67
6.35227e-67
6.35227e-67
6.35227e-67
6.35227e-67
6.35227e-67
6.35227e-67
6.35227e-67
6.35227e-67
6.35227e-67
6.35227e-67
6.35227e-67
6.35227e-67
6.35227e-67
6.35227e-67
6.35227e-67
6.35227e-67
6.35227e-67
6.35227e-67
6.35227e-67
6.35227e-67
6.35227e-67
6.35227e-67
6.35227e-67
6.35227e-67
6.35227e-67
6.35227e-67
6.35227e-67
6.35227e-67
6.35227e-67
6.35227e-67
6.35227e-67
6.35227e-67
6.35227e-67
6.35227e-67
-0.000915452
-0.000262648
0.000661619
0.00037843
0.00118414
0.00134309
6.35227e-67
6.35227e-67
6.35227e-67
6.35227e-67
6.35227e-67
6.35227e-67
6.35227e-67
6.35227e-67
6.35227e-67
6.35227e-67
6.35227e-67
6.35227e-67
6.35227e-67
6.35227e-67
6.35227e-67
6.35227e-67
6.35227e-67
6.35227e-67
6.35227e-67
6.35227e-67
6.35227e-67
6.35227e-67
6.35227e-67
6.35227e-67
6.35227e-67
6.35227e-67
6.35227e-67
6.35227e-67
6.35227e-67
6.35227e-67
6.35227e-67
6.35227e-67
6.35227e-67
6.35227e-67
6.35227e-67
0.00121249
-0.00102548
-0.00151395
-0.0021056
-0.00232834
-0.00243685
-0.00210969
-0.0022557
-0.00223057
-0.00219913
-0.00185997
-0.00191219
-0.00210606
-0.00215208
6.35227e-67
6.35227e-67
6.35227e-67
6.35227e-67
6.35227e-67
6.35227e-67
6.35227e-67
6.35227e-67
6.35227e-67
6.35227e-67
6.35227e-67
6.35227e-67
6.35227e-67
6.35227e-67
6.35227e-67
6.35227e-67
6.35227e-67
6.35227e-67
6.35227e-67
6.35227e-67
6.35227e-67
6.35227e-67
-1.91635e-06
-2.07086e-06
-2.31929e-06
-2.9843e-06
-3.29744e-06
-2.96129e-06
-2.79124e-06
-1.23005e-06
-4.01549e-07
-9.39888e-08
1.13396e-06
1.42191e-06
2.02812e-06
2.13033e-06
2.08026e-06
1.95498e-06
1.82792e-06
2.05167e-06
1.52918e-06
4.53018e-07
-3.26328e-07
-1.24697e-06
3.26405e-07
1.6975e-07
-2.98328e-08
-3.31141e-07
-6.95613e-07
-1.47779e-06
-1.83043e-06
1.98799e-06
1.74681e-06
8.7592e-07
8.37512e-07
2.32932e-06
5.51633e-06
2.26405e-05
2.25519e-05
1.08402e-05
-2.96352e-06
-2.41879e-05
-1.03563e-05
-3.52932e-06
-1.22018e-06
-6.89316e-07
7.155e-05
0.000102979
0.000189002
0.000438965
0.0014565
0.00137313
0.000520341
-0.000139639
-0.00107289
-0.000854094
-0.000318287
-0.000143428
-0.000101096
-8.69721e-05
0.00156196
0.000862812
0.000460451
0.000207041
4.89344e-05
1.42559e-05
5.18327e-05
3.32812e-05
-0.000151564
-0.000421644
-0.000766559
-0.00134922
-0.00019335
-0.000367543
-0.000773957
-0.00140833
-0.00372944
0.00250044
0.000878255
0.00013667
-2.24758e-05
-3.99551e-05
-3.4609e-06
1.63281e-05
3.20714e-05
3.12943e-05
2.78099e-05
2.26133e-05
1.98089e-05
1.63911e-05
1.07468e-05
8.82808e-06
7.94744e-06
5.50942e-06
4.10338e-06
2.51853e-06
1.23569e-06
7.0643e-07
1.48116e-06
1.61781e-06
7.24612e-07
4.14502e-07
1.34568e-07
-4.59447e-07
-1.61501e-06
-1.89458e-06
-1.25492e-07
-4.65761e-07
-5.12067e-07
-1.18069e-07
1.21743e-07
4.02324e-07
4.05736e-07
6.76798e-07
1.28034e-06
-3.0305e-08
-1.97705e-07
-6.98027e-08
3.34845e-08
-7.47881e-07
-1.37375e-06
-3.17013e-06
-4.53202e-06
-5.6006e-06
-7.601e-06
-1.19881e-05
-1.69652e-05
-2.22144e-05
-3.51957e-05
-4.81309e-05
-6.83197e-05
-9.79361e-05
-0.000136817
-0.000179105
-0.000207638
-0.000216994
-0.000175691
-1.68684e-06
0.00044315
0.00128584
0.00226708
0.00358698
0.00498242
0.00614291
0.00657075
0.00637151
0.0064066
0.00633052
0.00684104
0.00540824
0.00321828
0.0047267
0.00266162
0.000486526
-0.00337287
-0.0066718
-0.00707886
-0.00458563
-0.000474572
2.27884e-05
0.000734847
0.00269797
0.00310338
0.00255337
0.00218129
0.00252082
0.00230306
0.0020508
0.00174174
0.00272052
0.0024273
0.00266321
0.00279305
0.00775569
0.0078454
0.00804962
0.00851203
0.00423352
0.00253087
0.00224098
0.00104174
-0.000109977
-0.0011299
-0.00140185
-0.00206135
-0.00083196
-0.000642948
-0.000510336
-0.000370813
0.000209692
0.000653498
0.000705054
0.000732936
0.000682825
0.000490769
0.000263851
-0.0046694
-0.00447825
-0.000601356
-0.00061865
-0.000349358
0.00311199
0.00681029
0.00966775
0.010699
0.00428882
0.00137722
-8.99348e-05
0.000189506
0.000373501
0.000442013
0.000841533
0.0014281
0.00250635
-0.0119192
-0.00952239
-0.0077689
-0.00712902
-0.00674815
-0.00669501
-0.00878048
-0.00968306
-0.010573
-0.0157434
6.35227e-67
6.35227e-67
6.35227e-67
6.35227e-67
6.35227e-67
6.35227e-67
6.35227e-67
6.35227e-67
6.35227e-67
6.35227e-67
6.35227e-67
6.35227e-67
6.35227e-67
6.35227e-67
6.35227e-67
6.35227e-67
6.35227e-67
6.35227e-67
6.35227e-67
6.35227e-67
6.35227e-67
6.35227e-67
6.35227e-67
6.35227e-67
6.35227e-67
6.35227e-67
6.35227e-67
6.35227e-67
6.35227e-67
6.35227e-67
6.35227e-67
6.35227e-67
6.35227e-67
6.35227e-67
6.35227e-67
6.35227e-67
6.35227e-67
6.35227e-67
6.35227e-67
6.35227e-67
6.35227e-67
6.35227e-67
6.35227e-67
6.35227e-67
6.35227e-67
6.35227e-67
6.35227e-67
6.35227e-67
6.35227e-67
6.35227e-67
6.35227e-67
6.35227e-67
6.35227e-67
6.35227e-67
6.35227e-67
6.35227e-67
6.35227e-67
6.35227e-67
6.35227e-67
6.35227e-67
6.35227e-67
6.35227e-67
6.35227e-67
6.35227e-67
6.35227e-67
6.35227e-67
6.35227e-67
6.35227e-67
6.35227e-67
6.35227e-67
6.35227e-67
6.35227e-67
6.35227e-67
6.35227e-67
6.35227e-67
6.35227e-67
6.35227e-67
6.35227e-67
6.35227e-67
6.35227e-67
6.35227e-67
6.35227e-67
6.35227e-67
6.35227e-67
6.35227e-67
6.35227e-67
6.35227e-67
6.35227e-67
6.35227e-67
6.35227e-67
6.35227e-67
6.35227e-67
6.35227e-67
6.35227e-67
6.35227e-67
6.35227e-67
6.35227e-67
6.35227e-67
6.35227e-67
6.35227e-67
6.35227e-67
6.35227e-67
6.35227e-67
6.35227e-67
6.35227e-67
6.35227e-67
6.35227e-67
6.35227e-67
6.35227e-67
6.35227e-67
6.35227e-67
6.35227e-67
6.35227e-67
6.35227e-67
6.35227e-67
6.35227e-67
6.35227e-67
6.35227e-67
6.35227e-67
6.35227e-67
6.35227e-67
6.35227e-67
6.35227e-67
6.35227e-67
6.35227e-67
6.35227e-67
6.35227e-67
6.35227e-67
6.35227e-67
6.35227e-67
6.35227e-67
6.35227e-67
6.35227e-67
6.35227e-67
6.35227e-67
6.35227e-67
6.35227e-67
6.35227e-67
6.35227e-67
6.35227e-67
6.35227e-67
6.35227e-67
6.35227e-67
6.35227e-67
6.35227e-67
6.35227e-67
6.35227e-67
6.35227e-67
6.35227e-67
6.35227e-67
6.35227e-67
6.35227e-67
6.35227e-67
6.35227e-67
6.35227e-67
6.35227e-67
6.35227e-67
6.35227e-67
6.35227e-67
6.35227e-67
6.35227e-67
6.35227e-67
6.35227e-67
6.35227e-67
6.35227e-67
6.35227e-67
6.35227e-67
6.35227e-67
6.35227e-67
6.35227e-67
6.35227e-67
6.35227e-67
6.35227e-67
6.35227e-67
6.35227e-67
6.35227e-67
6.35227e-67
6.35227e-67
6.35227e-67
6.35227e-67
6.35227e-67
6.35227e-67
6.35227e-67
6.35227e-67
6.35227e-67
6.35227e-67
6.35227e-67
6.35227e-67
6.35227e-67
6.35227e-67
6.35227e-67
6.35227e-67
6.35227e-67
6.35227e-67
6.35227e-67
6.35227e-67
6.35227e-67
6.35227e-67
6.35227e-67
6.35227e-67
6.35227e-67
6.35227e-67
6.35227e-67
6.35227e-67
6.35227e-67
6.35227e-67
6.35227e-67
6.35227e-67
6.35227e-67
6.35227e-67
6.35227e-67
6.35227e-67
6.35227e-67
6.35227e-67
6.35227e-67
6.35227e-67
6.35227e-67
6.35227e-67
6.35227e-67
6.35227e-67
6.35227e-67
6.35227e-67
6.35227e-67
6.35227e-67
6.35227e-67
6.35227e-67
6.35227e-67
6.35227e-67
6.35227e-67
6.35227e-67
6.35227e-67
6.35227e-67
6.35227e-67
6.35227e-67
6.35227e-67
6.35227e-67
6.35227e-67
6.35227e-67
6.35227e-67
6.35227e-67
6.35227e-67
6.35227e-67
6.35227e-67
6.35227e-67
6.35227e-67
6.35227e-67
6.35227e-67
6.35227e-67
6.35227e-67
6.35227e-67
6.35227e-67
6.35227e-67
6.35227e-67
6.35227e-67
6.35227e-67
6.35227e-67
6.35227e-67
6.35227e-67
6.35227e-67
6.35227e-67
6.35227e-67
6.35227e-67
6.35227e-67
6.35227e-67
6.35227e-67
6.35227e-67
6.35227e-67
6.35227e-67
6.35227e-67
6.35227e-67
6.35227e-67
6.35227e-67
6.35227e-67
6.35227e-67
6.35227e-67
6.35227e-67
6.35227e-67
6.35227e-67
6.35227e-67
6.35227e-67
6.35227e-67
6.35227e-67
6.35227e-67
6.35227e-67
6.35227e-67
6.35227e-67
6.35227e-67
6.35227e-67
6.35227e-67
6.35227e-67
6.35227e-67
6.35227e-67
6.35227e-67
6.35227e-67
-0.00851116
-0.0123727
-0.0192737
-0.0137148
-0.0131899
-0.0112254
-0.00691695
-0.0014223
0.000831562
0.00354699
0.00812033
0.0123974
0.00902766
0.00597419
-0.00739597
-0.0174856
-0.0175708
-0.0165412
-0.0120739
-0.00885955
-0.00491353
0.000872228
0.00138172
0.00445597
0.0101146
0.011557
0.0134947
0.00848808
0.00114674
-0.0105577
-0.00978713
-0.0126993
-0.00893871
-0.00549738
-0.00247849
0.00389356
0.0072662
0.00463997
0.00888739
0.0119212
0.00749054
0.00287555
6.35227e-67
6.35227e-67
6.35227e-67
6.35227e-67
6.35227e-67
6.35227e-67
6.35227e-67
6.35227e-67
6.35227e-67
6.35227e-67
6.35227e-67
6.35227e-67
6.35227e-67
6.35227e-67
6.35227e-67
6.35227e-67
6.35227e-67
6.35227e-67
6.35227e-67
6.35227e-67
6.35227e-67
6.35227e-67
6.35227e-67
6.35227e-67
6.35227e-67
6.35227e-67
6.35227e-67
6.35227e-67
6.35227e-67
6.35227e-67
6.35227e-67
6.35227e-67
6.35227e-67
6.35227e-67
6.35227e-67
6.35227e-67
6.35227e-67
6.35227e-67
6.35227e-67
6.35227e-67
6.35227e-67
6.35227e-67
6.35227e-67
6.35227e-67
6.35227e-67
6.35227e-67
6.35227e-67
6.35227e-67
6.35227e-67
6.35227e-67
6.35227e-67
6.35227e-67
6.35227e-67
6.35227e-67
6.35227e-67
6.35227e-67
6.35227e-67
6.35227e-67
6.35227e-67
6.35227e-67
6.35227e-67
6.35227e-67
6.35227e-67
6.35227e-67
6.35227e-67
6.35227e-67
6.35227e-67
6.35227e-67
6.35227e-67
6.35227e-67
6.35227e-67
6.35227e-67
6.35227e-67
6.35227e-67
6.35227e-67
6.35227e-67
6.35227e-67
6.35227e-67
6.35227e-67
6.35227e-67
6.35227e-67
6.35227e-67
6.35227e-67
6.35227e-67
6.35227e-67
6.35227e-67
6.35227e-67
6.35227e-67
6.35227e-67
6.35227e-67
6.35227e-67
6.35227e-67
6.35227e-67
6.35227e-67
6.35227e-67
6.35227e-67
6.35227e-67
6.35227e-67
6.35227e-67
6.35227e-67
6.35227e-67
6.35227e-67
6.35227e-67
6.35227e-67
6.35227e-67
6.35227e-67
6.35227e-67
6.35227e-67
6.35227e-67
6.35227e-67
6.35227e-67
6.35227e-67
6.35227e-67
6.35227e-67
6.35227e-67
6.35227e-67
6.35227e-67
6.35227e-67
6.35227e-67
6.35227e-67
6.35227e-67
6.35227e-67
6.35227e-67
6.35227e-67
6.35227e-67
6.35227e-67
6.35227e-67
6.35227e-67
6.35227e-67
6.35227e-67
6.35227e-67
6.35227e-67
6.35227e-67
6.35227e-67
6.35227e-67
6.35227e-67
6.35227e-67
6.35227e-67
6.35227e-67
6.35227e-67
6.35227e-67
6.35227e-67
6.35227e-67
6.35227e-67
6.35227e-67
6.35227e-67
6.35227e-67
6.35227e-67
6.35227e-67
6.35227e-67
6.35227e-67
6.35227e-67
6.35227e-67
6.35227e-67
6.35227e-67
6.35227e-67
6.35227e-67
6.35227e-67
6.35227e-67
6.35227e-67
6.35227e-67
6.35227e-67
6.35227e-67
6.35227e-67
6.35227e-67
6.35227e-67
6.35227e-67
6.35227e-67
6.35227e-67
6.35227e-67
6.35227e-67
6.35227e-67
6.35227e-67
6.35227e-67
6.35227e-67
6.35227e-67
6.35227e-67
6.35227e-67
6.35227e-67
6.35227e-67
6.35227e-67
6.35227e-67
6.35227e-67
6.35227e-67
6.35227e-67
6.35227e-67
6.35227e-67
6.35227e-67
6.35227e-67
6.35227e-67
6.35227e-67
6.35227e-67
6.35227e-67
6.35227e-67
6.35227e-67
6.35227e-67
6.35227e-67
6.35227e-67
6.35227e-67
6.35227e-67
6.35227e-67
6.35227e-67
6.35227e-67
6.35227e-67
6.35227e-67
6.35227e-67
6.35227e-67
6.35227e-67
6.35227e-67
6.35227e-67
6.35227e-67
6.35227e-67
6.35227e-67
6.35227e-67
6.35227e-67
6.35227e-67
6.35227e-67
6.35227e-67
6.35227e-67
6.35227e-67
6.35227e-67
6.35227e-67
6.35227e-67
6.35227e-67
6.35227e-67
6.35227e-67
6.35227e-67
6.35227e-67
6.35227e-67
6.35227e-67
6.35227e-67
6.35227e-67
6.35227e-67
6.35227e-67
6.35227e-67
6.35227e-67
6.35227e-67
6.35227e-67
6.35227e-67
6.35227e-67
6.35227e-67
6.35227e-67
6.35227e-67
6.35227e-67
6.35227e-67
6.35227e-67
6.35227e-67
6.35227e-67
6.35227e-67
6.35227e-67
6.35227e-67
6.35227e-67
6.35227e-67
6.35227e-67
6.35227e-67
6.35227e-67
6.35227e-67
6.35227e-67
6.35227e-67
6.35227e-67
6.35227e-67
6.35227e-67
6.35227e-67
6.35227e-67
6.35227e-67
6.35227e-67
6.35227e-67
6.35227e-67
6.35227e-67
6.35227e-67
6.35227e-67
6.35227e-67
6.35227e-67
6.35227e-67
6.35227e-67
6.35227e-67
6.35227e-67
6.35227e-67
6.35227e-67
6.35227e-67
6.35227e-67
6.35227e-67
6.35227e-67
6.35227e-67
6.35227e-67
6.35227e-67
6.35227e-67
6.35227e-67
6.35227e-67
6.35227e-67
6.35227e-67
6.35227e-67
6.35227e-67
6.35227e-67
6.35227e-67
6.35227e-67
6.35227e-67
6.35227e-67
6.35227e-67
6.35227e-67
6.35227e-67
6.35227e-67
6.35227e-67
6.35227e-67
6.35227e-67
6.35227e-67
6.35227e-67
6.35227e-67
6.35227e-67
6.35227e-67
6.35227e-67
6.35227e-67
6.35227e-67
6.35227e-67
6.35227e-67
6.35227e-67
6.35227e-67
6.35227e-67
6.35227e-67
6.35227e-67
6.35227e-67
6.35227e-67
6.35227e-67
6.35227e-67
6.35227e-67
6.35227e-67
6.35227e-67
6.35227e-67
6.35227e-67
6.35227e-67
6.35227e-67
6.35227e-67
6.35227e-67
6.35227e-67
6.35227e-67
6.35227e-67
6.35227e-67
6.35227e-67
6.35227e-67
6.35227e-67
6.35227e-67
6.35227e-67
6.35227e-67
6.35227e-67
6.35227e-67
6.35227e-67
6.35227e-67
6.35227e-67
6.35227e-67
6.35227e-67
6.35227e-67
6.35227e-67
6.35227e-67
6.35227e-67
6.35227e-67
6.35227e-67
6.35227e-67
6.35227e-67
6.35227e-67
6.35227e-67
6.35227e-67
6.35227e-67
6.35227e-67
6.35227e-67
6.35227e-67
6.35227e-67
6.35227e-67
6.35227e-67
6.35227e-67
6.35227e-67
6.35227e-67
6.35227e-67
6.35227e-67
6.35227e-67
6.35227e-67
6.35227e-67
6.35227e-67
6.35227e-67
6.35227e-67
6.35227e-67
6.35227e-67
6.35227e-67
6.35227e-67
6.35227e-67
6.35227e-67
6.35227e-67
6.35227e-67
6.35227e-67
6.35227e-67
6.35227e-67
6.35227e-67
6.35227e-67
6.35227e-67
6.35227e-67
6.35227e-67
6.35227e-67
6.35227e-67
6.35227e-67
6.35227e-67
6.35227e-67
6.35227e-67
6.35227e-67
6.35227e-67
6.35227e-67
6.35227e-67
6.35227e-67
6.35227e-67
6.35227e-67
6.35227e-67
6.35227e-67
6.35227e-67
6.35227e-67
6.35227e-67
6.35227e-67
6.35227e-67
6.35227e-67
6.35227e-67
6.35227e-67
6.35227e-67
6.35227e-67
6.35227e-67
6.35227e-67
6.35227e-67
6.35227e-67
6.35227e-67
6.35227e-67
6.35227e-67
6.35227e-67
6.35227e-67
6.35227e-67
6.35227e-67
6.35227e-67
6.35227e-67
6.35227e-67
6.35227e-67
6.35227e-67
6.35227e-67
6.35227e-67
6.35227e-67
6.35227e-67
6.35227e-67
6.35227e-67
6.35227e-67
6.35227e-67
6.35227e-67
6.35227e-67
6.35227e-67
6.35227e-67
6.35227e-67
6.35227e-67
6.35227e-67
6.35227e-67
6.35227e-67
6.35227e-67
6.35227e-67
6.35227e-67
6.35227e-67
6.35227e-67
6.35227e-67
6.35227e-67
6.35227e-67
6.35227e-67
6.35227e-67
6.35227e-67
6.35227e-67
6.35227e-67
6.35227e-67
6.35227e-67
6.35227e-67
6.35227e-67
6.35227e-67
6.35227e-67
6.35227e-67
6.35227e-67
6.35227e-67
6.35227e-67
6.35227e-67
6.35227e-67
6.35227e-67
6.35227e-67
6.35227e-67
6.35227e-67
6.35227e-67
6.35227e-67
6.35227e-67
6.35227e-67
6.35227e-67
6.35227e-67
6.35227e-67
6.35227e-67
6.35227e-67
6.35227e-67
6.35227e-67
6.35227e-67
6.35227e-67
6.35227e-67
6.35227e-67
6.35227e-67
6.35227e-67
6.35227e-67
6.35227e-67
6.35227e-67
6.35227e-67
6.35227e-67
6.35227e-67
6.35227e-67
6.35227e-67
6.35227e-67
6.35227e-67
6.35227e-67
6.35227e-67
6.35227e-67
6.35227e-67
6.35227e-67
6.35227e-67
6.35227e-67
6.35227e-67
6.35227e-67
6.35227e-67
6.35227e-67
6.35227e-67
6.35227e-67
6.35227e-67
6.35227e-67
6.35227e-67
6.35227e-67
6.35227e-67
6.35227e-67
6.35227e-67
6.35227e-67
6.35227e-67
6.35227e-67
6.35227e-67
6.35227e-67
6.35227e-67
6.35227e-67
6.35227e-67
6.35227e-67
6.35227e-67
6.35227e-67
6.35227e-67
6.35227e-67
6.35227e-67
6.35227e-67
6.35227e-67
6.35227e-67
6.35227e-67
6.35227e-67
6.35227e-67
6.35227e-67
6.35227e-67
6.35227e-67
6.35227e-67
6.35227e-67
6.35227e-67
6.35227e-67
6.35227e-67
6.35227e-67
6.35227e-67
6.35227e-67
6.35227e-67
6.35227e-67
6.35227e-67
6.35227e-67
6.35227e-67
6.35227e-67
6.35227e-67
6.35227e-67
6.35227e-67
6.35227e-67
6.35227e-67
6.35227e-67
6.35227e-67
6.35227e-67
6.35227e-67
6.35227e-67
6.35227e-67
6.35227e-67
6.35227e-67
6.35227e-67
6.35227e-67
6.35227e-67
6.35227e-67
6.35227e-67
6.35227e-67
6.35227e-67
6.35227e-67
6.35227e-67
6.35227e-67
6.35227e-67
6.35227e-67
6.35227e-67
6.35227e-67
6.35227e-67
6.35227e-67
6.35227e-67
6.35227e-67
6.35227e-67
6.35227e-67
6.35227e-67
6.35227e-67
6.35227e-67
6.35227e-67
6.35227e-67
6.35227e-67
6.35227e-67
6.35227e-67
6.35227e-67
6.35227e-67
6.35227e-67
6.35227e-67
6.35227e-67
6.35227e-67
6.35227e-67
6.35227e-67
6.35227e-67
6.35227e-67
6.35227e-67
6.35227e-67
6.35227e-67
6.35227e-67
6.35227e-67
6.35227e-67
6.35227e-67
6.35227e-67
6.35227e-67
6.35227e-67
6.35227e-67
6.35227e-67
6.35227e-67
6.35227e-67
6.35227e-67
6.35227e-67
6.35227e-67
6.35227e-67
6.35227e-67
6.35227e-67
6.35227e-67
6.35227e-67
6.35227e-67
-0.00123183
-0.00118548
-0.00156531
-0.00197509
-0.00224556
-0.00251068
-0.00228684
-0.00200919
-0.00179646
-0.00147471
-0.00161327
-0.00149282
-0.00112702
0.000782182
-0.000336354
-0.000280582
-0.000968835
-0.00158988
-0.00215979
-0.00272605
-0.00300933
-0.00383355
-0.00385007
-0.00401197
-0.00444808
-0.00428007
-0.00378565
-0.000697932
0.000835565
0.000384191
-0.000368777
-0.000699135
-0.00151944
-0.00251241
-0.00311439
-0.00395332
-0.00526154
-0.0058541
-0.00665858
-0.00660055
-0.00610792
-0.00299167
-1.56214e-06
-1.54027e-06
-1.65968e-06
-2.08249e-06
-2.15304e-06
-2.27476e-06
-2.19924e-06
-5.14353e-07
-4.34591e-07
-8.56823e-07
-1.06088e-06
-9.98201e-07
-1.02253e-06
-9.92214e-07
3.45939e-07
3.11207e-07
-1.25042e-07
5.81858e-08
1.53108e-07
5.17421e-08
-2.38524e-07
1.32756e-06
1.22079e-06
1.09227e-06
1.26138e-06
1.30159e-06
6.78838e-07
1.02331e-06
6.07148e-07
3.30404e-07
-1.39855e-07
-6.93234e-07
1.3091e-06
3.74047e-07
-2.43411e-07
-1.06025e-06
1.60351e-06
5.15311e-07
-4.09036e-07
-1.26958e-06
8.73143e-07
2.18857e-06
5.32759e-06
1.27485e-05
2.55622e-07
1.13195e-06
2.08849e-06
5.32548e-06
-9.53756e-08
-5.79612e-07
-1.13155e-06
-4.27284e-06
-4.619e-07
-1.39668e-06
-3.99825e-06
-1.15613e-05
4.21714e-05
6.53695e-05
0.000136096
0.000313948
0.000921984
1.78462e-05
2.06331e-05
6.45807e-05
0.000137627
0.000277471
-1.92838e-06
-1.52992e-06
-3.47036e-06
-2.75719e-05
-0.000166296
-4.39762e-05
-6.08139e-05
-8.62233e-05
-0.000251013
-0.00068704
0.00112925
0.000722337
0.000352262
0.000107261
0.000508221
0.000276588
0.000167488
7.06462e-05
-9.88203e-05
-7.35352e-05
4.53798e-05
3.41432e-05
-0.000750122
-0.000424075
-0.000205931
-3.21881e-05
-1.61227e-06
-3.28883e-06
-2.79027e-06
-2.57982e-06
-4.11709e-06
-2.93402e-06
-3.67725e-06
-3.48218e-06
-3.06323e-06
-3.92239e-06
-0.00125889
-0.0025748
-0.00303119
-0.00338839
-2.13678e-06
-7.76911e-07
-0.000364536
-0.000759015
-0.00267936
-0.00244772
-0.00282977
-0.00430044
-0.00317285
-0.000371903
-2.71392e-06
2.04015e-07
1.33519e-06
2.62761e-06
1.92048e-06
-3.15895e-06
-0.00172675
-1.66042e-05
1.68972e-05
-1.27288e-05
1.25042e-05
-3.7613e-05
-5.88801e-05
0.000284598
-5.7566e-05
7.7238e-06
1.21912e-05
1.4249e-05
1.40763e-05
1.18533e-05
9.03598e-06
4.24757e-06
-1.68082e-05
1.27436e-05
6.59017e-06
-0.000295709
-0.00190314
-0.00154186
-0.000789985
-0.000658061
-0.00016955
-0.000103424
-0.0011588
-5.91274e-05
-5.51344e-06
-5.22756e-06
-4.65058e-06
-4.81898e-06
-5.64271e-06
-2.36267e-06
-0.00376776
-0.00290777
-0.0023047
2.27933e-06
-0.00158838
-2.76516e-06
-0.00268449
-0.00401289
-4.56693e-06
-8.0077e-06
-0.00189427
1.31577e-06
-3.97832e-06
-0.00279625
-6.48485e-07
-0.00232958
-0.00269979
-0.00286565
-5.18361e-06
-0.00186268
-2.4496e-05
-0.00141016
1.39308e-05
2.26311e-05
-2.59167e-05
1.08126e-05
2.11544e-05
-5.4505e-05
2.36972e-06
-7.73326e-05
-0.000118006
-2.65297e-06
-0.000124557
-0.000143047
2.24743e-05
1.71028e-05
7.81293e-06
1.5554e-05
1.13676e-05
-0.00018617
-0.00250319
-0.00188698
-0.000326046
-0.000588243
-0.000874259
-0.000123539
-6.8416e-06
5.21946e-06
-6.69073e-06
-4.97588e-06
-0.00205561
-8.36581e-06
3.64651e-06
-0.00251315
-0.00223084
-2.32488e-06
-0.00215937
1.04248e-07
-0.00225713
-0.00225123
-4.63288e-06
-0.00232388
5.10151e-06
-0.00272148
-0.000976111
-1.19799e-05
-6.12235e-06
-0.00108981
-0.00023064
-6.19002e-05
-1.31284e-05
-3.02757e-05
1.59134e-05
2.26647e-06
1.61097e-05
-0.000112031
9.30633e-06
1.40089e-05
1.52564e-05
8.52807e-06
-0.00018431
1.21253e-05
-0.000164374
-0.000262459
-0.0018352
-1.76242e-05
-0.001116
-0.000414256
-0.000260663
-0.00215923
-0.000153852
-0.000573254
-4.05055e-06
-8.28335e-06
-6.6075e-06
-6.27045e-06
-8.29767e-06
-9.22154e-06
-0.0017924
-0.00149306
5.77592e-06
-1.27985e-06
-0.00236506
-0.00197937
3.1104e-06
-5.23783e-06
-0.00128689
-0.000751965
-0.000557384
-0.00172162
-0.00192276
-7.93736e-06
-0.000376413
7.14716e-06
9.44512e-06
4.40569e-06
8.44735e-06
-6.69236e-05
-9.30366e-05
-2.93889e-06
-3.53425e-05
-1.44706e-05
9.62557e-06
-0.000360117
-0.000279326
-0.000139975
-0.000206275
1.10349e-05
-2.18905e-06
-0.0017174
-1.22379e-05
-2.36853e-05
-0.000813609
-8.84523e-05
-0.000232289
-0.000157091
-0.000331255
0.00081603
-9.19939e-06
-5.9282e-06
-6.3177e-06
-9.91619e-06
-0.00154108
-0.00142158
-0.00120636
-0.000965038
-0.000701941
2.37804e-06
-5.09872e-06
-8.76018e-06
-8.66161e-06
-1.558e-05
-4.45261e-06
-1.51197e-05
-3.15511e-05
5.63913e-06
3.60939e-06
-0.000144474
-0.000101516
-0.000474869
-0.000202132
-5.5147e-05
5.14317e-06
-0.000356426
-0.000293351
-5.11033e-05
-9.46752e-05
-7.87311e-05
-0.000443531
-0.000127582
-0.00020027
-0.00090421
-1.21152e-05
-9.15789e-06
-4.63391e-06
-1.25209e-05
-0.00106679
-0.000790565
-0.00122041
5.54078e-06
-1.95616e-06
-1.08385e-05
-1.09512e-05
-3.27506e-05
-1.24835e-05
-4.98118e-05
-3.86862e-06
-5.76337e-07
-8.48416e-05
-0.000265282
-0.000515027
-0.000360819
-3.18281e-05
-1.75777e-05
-5.11812e-05
-5.7148e-05
-0.000607137
-0.00108123
-7.54779e-06
-1.69965e-05
-2.95571e-05
-1.60306e-05
-9.00786e-06
-0.000750585
-0.000549084
-8.00993e-06
-2.89767e-05
-5.99957e-06
-0.00214748
-7.24244e-06
8.42418e-08
-1.8235e-07
-1.75712e-07
2.98564e-08
2.88979e-07
4.54452e-07
6.70727e-07
8.29241e-07
8.5437e-07
1.10078e-07
2.56131e-07
4.32488e-07
4.53293e-07
4.79482e-07
3.90209e-07
2.5544e-07
1.85493e-07
-6.70937e-09
5.29433e-08
4.51122e-07
8.1115e-07
5.89518e-07
3.85031e-07
1.99562e-07
-9.80955e-08
1.4072e-07
-4.36723e-07
5.05482e-07
1.04535e-06
1.26776e-06
1.0668e-06
2.91352e-07
1.34202e-07
-5.73577e-07
-8.36079e-07
-1.09453e-06
2.66506e-06
2.93495e-06
3.30166e-06
2.72816e-06
2.27131e-06
1.99105e-05
2.25509e-06
-9.14144e-06
-1.16363e-05
7.35983e-05
-5.54014e-06
-7.29222e-06
2.24524e-06
5.23444e-06
1.10475e-05
2.95589e-06
2.73185e-06
2.73342e-06
2.76607e-06
2.31905e-06
1.84889e-06
1.32364e-06
6.21186e-07
-2.20217e-08
-7.3184e-07
-1.18824e-06
-1.39465e-06
-9.82877e-07
-2.05031e-05
7.61614e-05
-2.38757e-05
0.000114169
-3.07515e-05
0.000198749
-4.28261e-05
0.000389648
-5.54202e-05
0.000789103
-7.78603e-05
0.00150095
-0.000100894
-0.000120161
-0.000134319
-0.000129348
-2.82408e-05
0.00041876
0.00109949
0.00243476
0.00319837
0.00455244
0.00572341
0.00664455
0.00743493
0.00968585
0.00812992
0.0102845
0.00665857
0.00569138
0.00617198
0.00368045
0.0032237
0.000674098
-0.00113263
-0.00208603
-0.00476824
0.00379906
0.00236309
0.00392192
0.00464922
0.00402835
0.00276501
0.00191117
0.00102311
0.000987092
0.00111267
0.000845289
0.000457961
-1.28423e-05
-0.000440059
-0.00061061
-0.000321495
-3.15756e-05
-0.000110631
0.000591275
0.000918365
0.00223386
0.00278211
0.0036705
0.00443573
0.00587022
0.0092598
0.00704073
0.00429404
0.00191533
0.00139599
0.000915008
0.000603337
3.93923e-06
3.87222e-06
3.98094e-06
4.25483e-06
4.74289e-06
4.08819e-06
2.1801e-06
5.28805e-06
0.00278026
-0.00174407
0.000993619
-2.57784e-06
2.12866e-06
-4.0815e-05
0.00787859
0.00735531
0.000809081
9.20735e-06
-5.92816e-05
-0.00013672
-0.000132679
0.000726702
0.00558773
0.00248044
-2.14177e-06
-2.98576e-06
0.00149462
0.00447046
0.00153928
0.000387132
6.85256e-05
0.00180542
0.00249054
0.00628961
0.00623661
0.00267132
0.0017773
0.00856945
0.0102089
0.0125842
0.0134886
0.0127184
0.0107563
0.00171408
-2.73194e-05
0.00845402
0.00993973
0.0025991
0.00269142
5.10614e-06
7.42583e-07
-1.60947e-05
-5.35907e-07
3.03626e-06
-1.07553e-05
-8.23263e-06
-2.09841e-05
-7.0171e-05
-9.03438e-05
-0.000120844
-0.000139396
0.000213771
-5.37796e-05
0.00140116
0.00113013
0.000597142
0.00299941
0.00372818
0.00500685
0.00570535
0.00743575
0.000503462
0.00180738
0.00488891
0.000998786
0.00277148
0.00656093
0.0114073
0.00340582
0.011272
0.00836169
0.0074624
0.00972342
0.00352565
0.00172833
0.000548823
3.75969e-06
1.57159e-05
0.00200347
0.00141637
3.28366e-05
0.000688423
0.000249163
0.000422563
0.00119915
0.000141574
4.74929e-06
5.80008e-06
0.0066628
6.75272e-06
0.00129614
4.79109e-06
0.00203288
9.51609e-06
0.0051337
0.00140128
0.00649348
0.00176106
0.0105387
0.00701269
0.00939055
0.010504
0.0049341
0.013011
0.00865892
-1.86746e-05
0.00463021
0.00748925
0.00616656
0.00663071
0.0113789
0.00595836
0.0069642
0.00159674
0.00546701
0.0126207
0.00402093
0.0035803
0.00798574
0.0090237
0.00278459
0.0136972
0.00227166
0.0143631
0.0014134
0.0126837
0.00118009
0.00106334
0.0118901
0.00113921
0.009472
-7.55235e-05
0.00154601
-5.74602e-05
0.000676854
0.00781217
1.8392e-06
-4.77691e-05
0.00195375
-2.23835e-05
0.000208578
-3.59325e-06
-9.39953e-05
-3.39753e-05
0.00240365
-1.27348e-05
-9.53199e-05
-2.23988e-05
-2.28869e-06
0.00213351
0.00562856
-0.000113723
3.61258e-06
-2.19267e-09
-2.59246e-05
0.00413667
-8.48151e-06
0.00475585
0.00215196
-5.67331e-06
-3.48294e-06
0.00171938
4.49112e-06
0.00190983
1.56585e-05
7.54973e-05
0.000482503
0.000269323
0.000183361
0.000772493
6.98113e-06
6.35626e-06
5.55229e-06
6.16678e-06
0.00233288
-1.37848e-05
0.0072732
8.54476e-05
0.00576873
-1.29488e-05
0.00230933
-2.28516e-06
-4.37076e-06
0.000724321
0.00138267
0.00237936
0.0091168
0.00197595
0.011283
6.10686e-05
0.00216814
0.0134043
0.00183333
0.0140447
0.00258431
0.00317753
0.00239718
0.00776085
0.00581238
0.0143706
0.00371639
-5.88242e-06
0.0132746
0.00430327
0.0127077
0.00647383
0.0078784
0.0112298
0.00966909
0.00917373
0.00662114
0.00890838
0.00679345
0.010349
0.00728672
0.0101388
0.00568357
0.00941721
0.00644381
0.00689369
0.00691071
0.00770596
0.00805942
0.000319358
0.00601305
0.00519223
-1.05467e-06
-8.59601e-06
3.2766e-05
-1.21643e-05
-1.30848e-05
0.00336653
0.00200014
-1.20355e-05
-8.01516e-06
-1.92368e-06
1.98796e-06
4.54574e-06
-4.59177e-06
0.00204862
5.35419e-06
0.00207555
0.00187412
1.15313e-05
0.00163979
2.45163e-05
-1.77348e-06
0.000980322
0.000122155
0.000296011
0.000187511
0.000400138
8.4331e-06
5.10821e-06
6.06116e-06
8.35871e-06
0.0026927
0.00261793
-1.01951e-06
0.00603321
-2.94801e-06
0.00766865
0.000229644
0.000217164
-6.7205e-06
0.00893455
0.00462482
0.00278365
0.000708772
0.00283393
0.00293641
9.89486e-06
0.0111254
0.000407564
0.0117511
0.00332216
0.0126577
0.00401421
0.00421959
0.0129709
0.00723449
0.00461511
0.0121979
0.00623007
0.0116733
0.00678364
0.00772841
0.00698498
0.00930234
0.00815824
0.0077419
0.00940495
0.00919694
0.00884669
0.00973531
0.00615743
0.00592657
0.00814741
0.0102072
0.00770083
0.00766829
7.65265e-07
7.09425e-06
4.76713e-05
0.00309962
0.00137075
0.00012531
7.08276e-05
0.00212003
-3.52048e-06
2.97112e-05
0.000102789
-3.80925e-06
4.86339e-06
0.00243718
6.778e-06
0.00259909
0.00188279
0.00127419
1.25331e-05
0.000641041
0.0011718
0.000125454
0.000137824
0.000206316
0.00251144
1.10485e-05
7.56719e-06
4.62613e-06
1.16214e-05
0.00310679
0.00332788
0.00670503
0.00515956
0.00787729
2.9175e-05
0.00355138
0.00056339
0.000472742
0.00400831
0.000828726
1.42844e-06
0.00927242
0.00373802
0.00397431
0.0102445
0.000326131
0.0107049
0.00477195
0.0109415
0.00524693
0.00606506
0.0109846
0.00708802
0.00842127
0.0113022
0.00754317
0.00831583
0.00938504
0.0105574
0.00923903
0.0100847
0.00705538
0.008943
0.00888688
0.00920005
0.00838454
0.00867624
1.36065e-05
0.00115238
0.00286974
5.64558e-05
0.000100185
0.00186434
4.43554e-06
6.95713e-06
9.96271e-06
0.00236318
0.00130941
9.10374e-06
0.00183601
1.7694e-05
0.000991245
0.000705836
6.09476e-05
0.0109153
5.89798e-06
0.00375673
0.00425893
0.00543119
0.00665248
0.00423823
0.00447608
0.00743945
0.000901518
0.00528709
0.00873785
2.97515e-05
0.00569734
0.00982894
0.00317143
0.010354
0.00676623
0.00687771
0.0104679
0.00763952
0.010336
0.00873176
0.00928631
0.00897307
0.00932932
0.00953076
0.0103303
0.0083669
0.0102008
0.00762975
0.00751004
0.0100281
0.00993111
0.00924222
0.00124812
0.00243335
0.0017652
0.00252
1.786e-05
8.08039e-06
0.00215322
2.701e-05
0.0017254
5.26994e-05
1.84802e-05
2.76498e-05
0.00970877
0.00427394
0.00519995
0.00569867
0.00450767
0.00684986
0.00520101
0.00371566
0.00685722
0.00135249
0.00673268
0.00819294
0.00710932
0.00914696
0.00775009
0.0096604
0.00771597
0.00898228
0.00817449
0.00941125
0.00859969
0.00989239
0.00906368
0.00973811
0.0107744
0.0103427
0.00300811
0.0029603
0.00236227
0.00205418
0.0105157
0.00303717
1.78324e-05
0.00265583
0.00103419
4.29648e-05
0.00347625
0.00245119
0.0139546
0.000229724
0.000133547
0.00169523
0.000843807
0.00279359
0.00559612
0.00430785
0.00522721
0.00405022
0.000948052
0.00315224
0.00222241
-0.000602664
-0.00199119
-0.00279548
-0.00660211
-0.00334119
-0.00597061
-0.00438093
0.00430206
0.00394522
0.00376969
0.0023208
0.00201751
0.00162165
0.000557958
-0.000150573
-0.00145778
-0.00150779
-0.00485242
-0.00343413
-0.00204998
-0.00371057
0.00211042
0.00241849
0.00213826
0.00247858
0.00224372
0.00180487
0.00141032
-0.000215967
-9.27857e-05
-0.000741585
-0.00185181
-0.00132084
-0.000831938
-0.001727
-0.000399116
0.000527611
0.00152878
0.00240345
0.00248077
0.00187301
0.0011548
0.00189869
0.0016944
0.000894938
0.00016894
0.00127165
0.00102947
-0.000370539
-2.82402e-06
4.89658e-05
6.266e-05
0.000158662
-8.71495e-05
5.79506e-05
0.00010377
0.000362333
-0.000262596
9.97164e-06
0.000158496
0.000466328
-0.000679544
-2.86255e-05
0.000219379
0.000467235
-0.00108475
-9.21403e-06
0.000238831
0.000533987
-0.000380633
0.000417556
0.000307352
0.00048993
0.000594993
0.000748149
0.000436154
0.000382615
4.10442e-05
0.000259592
0.000304155
0.000132474
-0.000498857
-0.000192952
3.72735e-05
-0.000110179
3.84665e-05
-0.000352269
6.67489e-05
-7.25352e-05
0.000730572
-8.6041e-05
-2.73212e-05
0.00016635
0.000604417
-7.74896e-05
-0.000380778
-0.000266859
0.000353467
0.000638988
0.000156296
0.00037556
-0.000375182
0.00121457
0.00145911
0.001553
-1.35639e-05
0.0012281
0.000608936
0.0013629
-0.000183822
0.00178505
0.00115476
0.0018128
0.000413956
0.00235745
0.00188653
0.00289194
0.000851923
0.00177882
0.00277087
0.00298531
0.00386364
0.00423404
0.00442205
0.00534367
0.00504854
0.00375315
0.00353369
0.0062733
0.00465416
0.00017112
0.00117051
0.00425856
-0.00430451
-0.000145415
-1.01141e-05
0.0039565
-0.00231622
-0.00361992
-0.00178236
0.0032655
-0.0038376
-0.00438564
-0.000202447
0.000474117
0.00543991
0.00603298
0.00167947
-0.000622638
0.00287133
0.00416594
0.00140369
-0.00281069
0.00418743
0.00272564
0.00066662
-0.00290646
-0.00529913
-0.000979957
-0.00188515
-0.00313229
-0.00949065
-0.00377682
-0.00235168
-0.00176986
-0.0100452
-0.00475109
-0.00146307
-0.00055133
-0.0068725
-0.00281168
-0.00137288
1.77801e-05
-0.00437233
-0.00191803
-0.0018572
2.84306e-05
-0.00262242
-0.00175184
4.91874e-05
0.00209841
-0.0025982
-0.00201759
0.000151133
0.00189706
-0.00263824
-0.00152314
0.00116928
0.00220962
-0.00280913
-0.000884538
0.00125633
0.0030131
-0.00361203
-0.00118727
0.000724031
0.00333885
-0.00382282
-0.000815128
0.0014606
0.00319086
-0.00101841
-0.000183894
0.00198314
0.00330001
0.00100617
0.00030209
0.00142429
0.0027664
-0.000121415
-0.000419962
0.000674734
0.00207639
-0.00104147
-0.000989014
0.000147831
0.00128208
-0.000534996
-0.000728904
-2.70072e-05
0.000889459
8.59898e-05
-0.000268542
8.24934e-05
0.000360113
6.00733e-05
-3.27087e-05
3.27166e-05
0.000156051
-7.86713e-05
-4.32438e-05
-7.47846e-05
-1.42048e-05
-0.000105674
-7.96121e-05
-8.61178e-05
-7.71905e-05
-6.62372e-05
-6.63137e-05
-7.98028e-05
-8.14747e-05
-4.0664e-05
-6.54127e-05
-6.57583e-05
-8.0298e-05
-2.23733e-05
-5.21345e-05
-3.36435e-05
-5.80067e-05
-4.11546e-06
-2.20343e-05
-2.98555e-05
-4.52695e-05
-4.20818e-07
-1.75457e-05
-2.04756e-05
-3.45103e-05
4.46449e-06
-7.52482e-06
-1.33835e-05
-2.23695e-05
6.27873e-06
-3.36329e-06
-9.07877e-06
-1.78403e-05
7.46279e-06
-4.87772e-07
-2.35976e-06
-1.10678e-05
6.74547e-06
3.10301e-07
-1.22308e-06
-7.02134e-06
5.93203e-06
6.03128e-07
-3.07279e-07
-7.1348e-06
5.12111e-06
1.43235e-06
-3.91444e-07
-4.07934e-06
3.9463e-06
1.33381e-06
-4.15693e-07
-2.43633e-06
3.41293e-06
1.47752e-06
1.30415e-07
-1.89381e-06
2.4671e-06
9.51659e-07
-2.45014e-07
-1.51743e-06
1.33856e-06
4.27131e-07
1.79512e-07
-7.5412e-07
3.7281e-07
1.24106e-07
5.66661e-08
-7.64268e-08
-0.0163196
-0.00929735
-0.0074803
-0.00748082
-0.00874036
-0.00927534
-0.00980494
-0.0105453
-0.0122408
-0.0133707
-0.00411122
-0.0105944
-0.0118774
-0.0100129
-0.0118189
-0.0119281
-0.0139525
-0.0130639
-0.0140987
-0.0130888
-0.0058165
-0.0105852
-0.011585
-0.0124317
-0.0125619
-0.0132245
-0.0140126
-0.013866
-0.013144
-0.0114736
-0.0045768
-0.00482453
-0.00951851
-0.0109464
-0.0109111
-0.0112944
-0.0125684
-0.0125847
-0.0123697
-0.0105031
-0.00233118
-0.00613475
-0.00901722
-0.0107263
-0.0122563
-0.0124829
-0.0125265
-0.0121993
-0.0118396
-0.00997309
-0.00790907
-0.00372397
-0.0077725
-0.00872185
-0.0102843
-0.0101843
-0.0114375
-0.0103978
-0.00991049
-0.0103808
-0.00805137
-0.00796417
-0.00844071
-0.00925896
-0.0106899
-0.0106995
-0.00915424
-0.00939996
-0.00873689
-0.00781407
-0.00665735
-0.0117529
-0.00898366
-0.00969998
-0.00858016
-0.00967056
-0.0101145
-0.00858471
-0.00766418
-0.00809856
-0.0106932
-0.0110899
-0.00968814
-0.0105422
-0.00870408
-0.0074155
-0.00768433
-0.00811654
-0.00760948
-0.00690492
-0.0125413
-0.0108443
-0.0106347
-0.0074842
-0.00679468
-0.00583848
-0.00525289
-0.00548979
-0.00467423
-0.00532818
-0.0105929
-0.0118489
-0.0093987
-0.0088386
-0.00744924
-0.00572306
-0.00493545
-0.00499174
-0.0040428
-0.00400367
-0.0120437
-0.00555813
-0.00511246
-0.00530407
-0.00416497
-0.00365864
-0.00342365
-0.00300835
-0.00216929
-0.00151923
-0.00725823
-0.00783666
-0.00580987
-0.00552719
-0.00387187
-0.00312019
-0.00263779
-0.00161594
-0.0001029
0.000236748
-0.00124381
-0.000749326
-0.0013744
-0.00214804
-0.00164533
-0.00148719
-0.00133547
-0.0009691
0.00023951
0.00150172
6.35227e-67
6.35227e-67
6.35227e-67
6.35227e-67
6.35227e-67
6.35227e-67
6.35227e-67
6.35227e-67
6.35227e-67
6.35227e-67
6.35227e-67
6.35227e-67
6.35227e-67
6.35227e-67
6.35227e-67
6.35227e-67
6.35227e-67
6.35227e-67
6.35227e-67
6.35227e-67
6.35227e-67
6.35227e-67
6.35227e-67
6.35227e-67
6.35227e-67
6.35227e-67
6.35227e-67
6.35227e-67
6.35227e-67
6.35227e-67
6.35227e-67
6.35227e-67
6.35227e-67
6.35227e-67
6.35227e-67
6.35227e-67
6.35227e-67
6.35227e-67
6.35227e-67
6.35227e-67
6.35227e-67
6.35227e-67
6.35227e-67
6.35227e-67
6.35227e-67
6.35227e-67
6.35227e-67
6.35227e-67
6.35227e-67
6.35227e-67
6.35227e-67
6.35227e-67
6.35227e-67
6.35227e-67
6.35227e-67
6.35227e-67
6.35227e-67
6.35227e-67
6.35227e-67
6.35227e-67
6.35227e-67
6.35227e-67
6.35227e-67
6.35227e-67
6.35227e-67
6.35227e-67
6.35227e-67
6.35227e-67
6.35227e-67
6.35227e-67
6.35227e-67
6.35227e-67
6.35227e-67
6.35227e-67
6.35227e-67
6.35227e-67
6.35227e-67
6.35227e-67
6.35227e-67
6.35227e-67
6.35227e-67
6.35227e-67
6.35227e-67
6.35227e-67
6.35227e-67
6.35227e-67
6.35227e-67
6.35227e-67
6.35227e-67
6.35227e-67
6.35227e-67
6.35227e-67
6.35227e-67
6.35227e-67
6.35227e-67
6.35227e-67
6.35227e-67
6.35227e-67
6.35227e-67
6.35227e-67
6.35227e-67
6.35227e-67
6.35227e-67
6.35227e-67
6.35227e-67
6.35227e-67
6.35227e-67
6.35227e-67
6.35227e-67
6.35227e-67
6.35227e-67
6.35227e-67
6.35227e-67
6.35227e-67
6.35227e-67
6.35227e-67
6.35227e-67
6.35227e-67
6.35227e-67
6.35227e-67
6.35227e-67
6.35227e-67
6.35227e-67
6.35227e-67
6.35227e-67
6.35227e-67
6.35227e-67
6.35227e-67
6.35227e-67
6.35227e-67
6.35227e-67
6.35227e-67
6.35227e-67
6.35227e-67
6.35227e-67
6.35227e-67
6.35227e-67
6.35227e-67
6.35227e-67
6.35227e-67
6.35227e-67
6.35227e-67
6.35227e-67
6.35227e-67
6.35227e-67
6.35227e-67
6.35227e-67
6.35227e-67
6.35227e-67
6.35227e-67
6.35227e-67
6.35227e-67
6.35227e-67
6.35227e-67
6.35227e-67
6.35227e-67
6.35227e-67
6.35227e-67
6.35227e-67
6.35227e-67
6.35227e-67
6.35227e-67
6.35227e-67
6.35227e-67
6.35227e-67
6.35227e-67
6.35227e-67
6.35227e-67
6.35227e-67
6.35227e-67
6.35227e-67
6.35227e-67
6.35227e-67
6.35227e-67
6.35227e-67
6.35227e-67
6.35227e-67
6.35227e-67
6.35227e-67
6.35227e-67
6.35227e-67
6.35227e-67
6.35227e-67
6.35227e-67
6.35227e-67
6.35227e-67
6.35227e-67
6.35227e-67
6.35227e-67
6.35227e-67
6.35227e-67
6.35227e-67
6.35227e-67
6.35227e-67
6.35227e-67
6.35227e-67
6.35227e-67
6.35227e-67
6.35227e-67
6.35227e-67
6.35227e-67
6.35227e-67
6.35227e-67
6.35227e-67
6.35227e-67
6.35227e-67
6.35227e-67
6.35227e-67
6.35227e-67
6.35227e-67
6.35227e-67
6.35227e-67
6.35227e-67
6.35227e-67
6.35227e-67
6.35227e-67
6.35227e-67
6.35227e-67
6.35227e-67
6.35227e-67
6.35227e-67
6.35227e-67
6.35227e-67
6.35227e-67
6.35227e-67
6.35227e-67
6.35227e-67
6.35227e-67
6.35227e-67
6.35227e-67
6.35227e-67
6.35227e-67
6.35227e-67
6.35227e-67
6.35227e-67
6.35227e-67
6.35227e-67
6.35227e-67
6.35227e-67
6.35227e-67
6.35227e-67
6.35227e-67
6.35227e-67
6.35227e-67
6.35227e-67
6.35227e-67
6.35227e-67
6.35227e-67
6.35227e-67
6.35227e-67
6.35227e-67
6.35227e-67
6.35227e-67
6.35227e-67
6.35227e-67
6.35227e-67
6.35227e-67
6.35227e-67
6.35227e-67
6.35227e-67
6.35227e-67
6.35227e-67
6.35227e-67
6.35227e-67
6.35227e-67
6.35227e-67
6.35227e-67
6.35227e-67
6.35227e-67
6.35227e-67
6.35227e-67
6.35227e-67
6.35227e-67
6.35227e-67
6.35227e-67
6.35227e-67
6.35227e-67
6.35227e-67
6.35227e-67
6.35227e-67
6.35227e-67
6.35227e-67
6.35227e-67
6.35227e-67
6.35227e-67
6.35227e-67
6.35227e-67
6.35227e-67
6.35227e-67
6.35227e-67
6.35227e-67
6.35227e-67
6.35227e-67
6.35227e-67
6.35227e-67
6.35227e-67
6.35227e-67
6.35227e-67
6.35227e-67
6.35227e-67
6.35227e-67
6.35227e-67
6.35227e-67
6.35227e-67
6.35227e-67
6.35227e-67
6.35227e-67
6.35227e-67
6.35227e-67
6.35227e-67
6.35227e-67
6.35227e-67
6.35227e-67
6.35227e-67
6.35227e-67
6.35227e-67
6.35227e-67
6.35227e-67
6.35227e-67
6.35227e-67
6.35227e-67
6.35227e-67
6.35227e-67
6.35227e-67
6.35227e-67
6.35227e-67
6.35227e-67
6.35227e-67
6.35227e-67
6.35227e-67
6.35227e-67
6.35227e-67
6.35227e-67
6.35227e-67
6.35227e-67
6.35227e-67
6.35227e-67
6.35227e-67
6.35227e-67
6.35227e-67
6.35227e-67
6.35227e-67
6.35227e-67
6.35227e-67
6.35227e-67
6.35227e-67
6.35227e-67
6.35227e-67
6.35227e-67
6.35227e-67
6.35227e-67
6.35227e-67
6.35227e-67
6.35227e-67
6.35227e-67
6.35227e-67
6.35227e-67
6.35227e-67
6.35227e-67
6.35227e-67
6.35227e-67
6.35227e-67
6.35227e-67
6.35227e-67
6.35227e-67
6.35227e-67
6.35227e-67
6.35227e-67
6.35227e-67
6.35227e-67
6.35227e-67
6.35227e-67
6.35227e-67
6.35227e-67
6.35227e-67
6.35227e-67
6.35227e-67
6.35227e-67
6.35227e-67
6.35227e-67
6.35227e-67
6.35227e-67
6.35227e-67
6.35227e-67
6.35227e-67
6.35227e-67
6.35227e-67
6.35227e-67
6.35227e-67
6.35227e-67
6.35227e-67
6.35227e-67
6.35227e-67
6.35227e-67
6.35227e-67
6.35227e-67
6.35227e-67
6.35227e-67
6.35227e-67
6.35227e-67
6.35227e-67
6.35227e-67
6.35227e-67
6.35227e-67
6.35227e-67
6.35227e-67
6.35227e-67
6.35227e-67
6.35227e-67
6.35227e-67
6.35227e-67
6.35227e-67
6.35227e-67
6.35227e-67
6.35227e-67
6.35227e-67
6.35227e-67
6.35227e-67
6.35227e-67
6.35227e-67
6.35227e-67
6.35227e-67
6.35227e-67
6.35227e-67
6.35227e-67
6.35227e-67
6.35227e-67
6.35227e-67
6.35227e-67
6.35227e-67
6.35227e-67
6.35227e-67
6.35227e-67
6.35227e-67
6.35227e-67
6.35227e-67
6.35227e-67
6.35227e-67
6.35227e-67
6.35227e-67
6.35227e-67
6.35227e-67
6.35227e-67
6.35227e-67
6.35227e-67
6.35227e-67
6.35227e-67
6.35227e-67
6.35227e-67
6.35227e-67
6.35227e-67
6.35227e-67
6.35227e-67
6.35227e-67
6.35227e-67
6.35227e-67
6.35227e-67
6.35227e-67
6.35227e-67
6.35227e-67
6.35227e-67
6.35227e-67
6.35227e-67
6.35227e-67
6.35227e-67
6.35227e-67
6.35227e-67
6.35227e-67
6.35227e-67
6.35227e-67
6.35227e-67
6.35227e-67
6.35227e-67
6.35227e-67
6.35227e-67
6.35227e-67
6.35227e-67
6.35227e-67
6.35227e-67
6.35227e-67
6.35227e-67
6.35227e-67
6.35227e-67
6.35227e-67
6.35227e-67
6.35227e-67
6.35227e-67
6.35227e-67
6.35227e-67
6.35227e-67
6.35227e-67
6.35227e-67
6.35227e-67
6.35227e-67
6.35227e-67
6.35227e-67
6.35227e-67
6.35227e-67
6.35227e-67
6.35227e-67
6.35227e-67
6.35227e-67
6.35227e-67
6.35227e-67
6.35227e-67
6.35227e-67
6.35227e-67
6.35227e-67
6.35227e-67
6.35227e-67
6.35227e-67
6.35227e-67
6.35227e-67
6.35227e-67
6.35227e-67
6.35227e-67
6.35227e-67
6.35227e-67
6.35227e-67
6.35227e-67
6.35227e-67
6.35227e-67
6.35227e-67
6.35227e-67
6.35227e-67
6.35227e-67
6.35227e-67
6.35227e-67
6.35227e-67
6.35227e-67
6.35227e-67
6.35227e-67
6.35227e-67
6.35227e-67
6.35227e-67
6.35227e-67
6.35227e-67
6.35227e-67
6.35227e-67
6.35227e-67
6.35227e-67
6.35227e-67
6.35227e-67
6.35227e-67
6.35227e-67
6.35227e-67
6.35227e-67
6.35227e-67
6.35227e-67
6.35227e-67
6.35227e-67
6.35227e-67
6.35227e-67
6.35227e-67
6.35227e-67
6.35227e-67
6.35227e-67
6.35227e-67
6.35227e-67
6.35227e-67
6.35227e-67
6.35227e-67
6.35227e-67
6.35227e-67
6.35227e-67
6.35227e-67
6.35227e-67
6.35227e-67
6.35227e-67
6.35227e-67
6.35227e-67
6.35227e-67
6.35227e-67
6.35227e-67
6.35227e-67
6.35227e-67
6.35227e-67
6.35227e-67
6.35227e-67
6.35227e-67
6.35227e-67
6.35227e-67
6.35227e-67
6.35227e-67
6.35227e-67
6.35227e-67
6.35227e-67
6.35227e-67
6.35227e-67
6.35227e-67
6.35227e-67
6.35227e-67
6.35227e-67
6.35227e-67
6.35227e-67
6.35227e-67
6.35227e-67
6.35227e-67
6.35227e-67
6.35227e-67
6.35227e-67
6.35227e-67
6.35227e-67
6.35227e-67
6.35227e-67
6.35227e-67
6.35227e-67
6.35227e-67
6.35227e-67
6.35227e-67
6.35227e-67
6.35227e-67
6.35227e-67
6.35227e-67
6.35227e-67
6.35227e-67
6.35227e-67
6.35227e-67
6.35227e-67
6.35227e-67
6.35227e-67
6.35227e-67
6.35227e-67
6.35227e-67
6.35227e-67
6.35227e-67
6.35227e-67
6.35227e-67
6.35227e-67
6.35227e-67
6.35227e-67
6.35227e-67
6.35227e-67
6.35227e-67
6.35227e-67
6.35227e-67
6.35227e-67
6.35227e-67
6.35227e-67
6.35227e-67
6.35227e-67
6.35227e-67
6.35227e-67
6.35227e-67
6.35227e-67
6.35227e-67
6.35227e-67
6.35227e-67
6.35227e-67
6.35227e-67
6.35227e-67
6.35227e-67
6.35227e-67
6.35227e-67
6.35227e-67
6.35227e-67
6.35227e-67
6.35227e-67
6.35227e-67
6.35227e-67
6.35227e-67
6.35227e-67
6.35227e-67
6.35227e-67
6.35227e-67
6.35227e-67
6.35227e-67
6.35227e-67
6.35227e-67
6.35227e-67
6.35227e-67
6.35227e-67
6.35227e-67
6.35227e-67
6.35227e-67
6.35227e-67
6.35227e-67
6.35227e-67
6.35227e-67
6.35227e-67
6.35227e-67
6.35227e-67
6.35227e-67
6.35227e-67
6.35227e-67
6.35227e-67
6.35227e-67
6.35227e-67
6.35227e-67
6.35227e-67
6.35227e-67
6.35227e-67
6.35227e-67
6.35227e-67
6.35227e-67
6.35227e-67
6.35227e-67
6.35227e-67
6.35227e-67
6.35227e-67
6.35227e-67
6.35227e-67
6.35227e-67
6.35227e-67
6.35227e-67
6.35227e-67
6.35227e-67
6.35227e-67
6.35227e-67
6.35227e-67
6.35227e-67
6.35227e-67
6.35227e-67
6.35227e-67
6.35227e-67
6.35227e-67
6.35227e-67
6.35227e-67
6.35227e-67
6.35227e-67
6.35227e-67
6.35227e-67
6.35227e-67
6.35227e-67
6.35227e-67
6.35227e-67
6.35227e-67
6.35227e-67
6.35227e-67
6.35227e-67
6.35227e-67
6.35227e-67
6.35227e-67
6.35227e-67
6.35227e-67
6.35227e-67
6.35227e-67
6.35227e-67
6.35227e-67
6.35227e-67
6.35227e-67
6.35227e-67
6.35227e-67
6.35227e-67
6.35227e-67
6.35227e-67
6.35227e-67
6.35227e-67
6.35227e-67
6.35227e-67
6.35227e-67
6.35227e-67
6.35227e-67
6.35227e-67
6.35227e-67
6.35227e-67
6.35227e-67
6.35227e-67
6.35227e-67
6.35227e-67
6.35227e-67
6.35227e-67
-3.03624e-05
-4.91002e-05
-1.66192e-05
-6.55855e-05
-4.79906e-05
-4.39102e-05
-2.14105e-05
-0.000509307
8.1658e-05
0.000109715
0.000445573
0.000689876
-0.000485782
0.000243194
4.70332e-05
0.000430748
0.00087701
-0.000411531
-0.000213274
0.000960792
0.000703716
0.000704652
-0.0015499
-0.000668974
-0.000608934
-0.000277352
-1.26963e-06
-3.65887e-07
-8.47395e-07
-2.91185e-06
3.78259e-07
-2.83752e-07
-2.32187e-06
2.28415e-07
-6.28479e-07
-2.78837e-06
-7.78096e-07
5.56036e-07
1.40034e-06
2.57258e-06
-3.57965e-06
-2.25874e-06
-1.27706e-06
2.36931e-06
6.43603e-07
7.93851e-07
-3.71587e-06
-1.26297e-06
-3.31253e-06
-1.62723e-06
0.000971495
-0.00246339
-0.000270413
9.08424e-05
0.00168612
0.000813711
0.000407791
0.00133551
0.00318721
-0.000522924
0.000662424
0.00103506
0.000436808
0.000807879
0.000398063
0.000880695
0.000933513
0.000433626
0.00038064
0.000696921
0.000309955
3.88599e-05
0.00225983
-0.0017798
0.000225858
0.000112205
0.00229644
-0.0031804
-0.00405422
2.53912e-07
-2.95977e-07
-1.33934e-08
-2.22834e-06
1.76931e-06
2.8166e-06
1.20809e-06
4.64904e-07
2.67964e-06
-3.13916e-08
-0.0008923
-0.000561307
-0.00135419
6.14805e-07
-8.14621e-07
-3.9665e-07
2.35543e-07
-7.56074e-07
1.3925e-07
-1.36918e-06
-8.14316e-07
-2.08066e-06
-1.21288e-06
-2.53096e-06
-8.68783e-07
-5.08693e-07
-2.73987e-06
-2.85702e-06
-2.16472e-06
0.000824318
0.000980798
0.00136286
0.000583811
0.000737868
0.000892621
0.00154746
0.000615929
0.000255928
0.00051328
0.000999479
0.000625231
-0.00050133
0.000928081
0.00168083
0.00146134
-3.00573e-07
2.04871e-06
7.56918e-08
1.6369e-06
2.91865e-06
1.17069e-06
4.13826e-06
3.96858e-06
-3.64727e-05
-4.3583e-05
-2.58029e-05
-3.17946e-05
-1.80715e-05
-2.13503e-05
-3.86177e-05
0.00369169
0.00402652
0.00071091
-4.86572e-05
-5.66456e-05
-6.70785e-05
-0.000158471
-8.25826e-06
-4.40321e-05
-0.000254256
-0.000355965
-0.000719153
-0.000196668
-0.000331506
-0.000416905
-0.000689576
0.000118919
-0.00010777
-0.000197296
-0.00433869
-0.00297093
-0.00165424
-0.00109358
0.000278011
0.000303225
0.00183862
0.00248891
0.00497945
0.00222439
0.00187079
0.000442732
0.00247039
0.00172796
-0.000207429
0.000186305
-0.000338029
0.00266472
0.000689563
0.000245517
0.000298232
0.000448035
2.83939e-06
-0.000360245
0.000744165
0.000271933
0.000695595
0.00146651
0.000875147
0.00126309
0.000573874
-0.000129985
2.6465e-05
-3.19169e-05
-4.88918e-05
-6.55602e-05
0.00216312
0.00280538
0.000964986
0.000469512
0.000135243
5.42451e-05
0.000150635
5.74697e-05
7.21757e-05
8.00836e-05
7.33547e-06
4.62584e-05
1.07086e-05
1.54963e-05
9.30641e-06
-8.5356e-06
-3.72275e-06
-1.39783e-05
5.84612e-05
-5.33542e-05
4.23742e-05
3.22694e-05
1.28178e-05
-1.51716e-05
-5.46983e-05
-3.1135e-06
-8.04011e-06
-3.59969e-05
-7.01176e-05
2.49523e-06
-0.00045187
-0.000180318
0.000329649
0.000111375
-4.27159e-05
0.000391768
0.000169509
1.68765e-07
-4.55215e-08
5.18087e-07
9.82464e-07
4.71221e-07
1.94377e-06
1.02549e-07
1.17795e-06
6.80779e-07
-5.92152e-07
7.86275e-06
-8.55095e-07
-6.62301e-07
-1.93203e-06
-2.61579e-07
-8.11957e-07
6.12665e-07
4.84321e-07
-1.79011e-06
-3.29328e-06
0.0020628
0.00194167
-0.00142718
-0.00142737
-0.0016938
0.00148723
0.00565252
0.00183039
5.49435e-07
1.1475e-06
-1.98777e-06
1.02996e-06
1.04274e-06
-4.03913e-06
-5.21561e-06
-2.35811e-06
1.21736e-05
1.62716e-06
-2.51194e-06
4.31421e-06
3.83334e-06
3.48044e-06
2.6765e-07
4.38643e-07
2.47759e-06
1.00092e-06
3.19379e-07
9.42586e-07
4.01692e-06
6.14708e-07
-6.53309e-06
-2.84878e-06
-6.30747e-06
-3.84305e-06
3.14798e-06
1.30049e-05
2.55824e-06
-0.00035798
-8.16485e-07
-2.26134e-06
2.38704e-06
3.02849e-06
7.33391e-06
0.00137118
0.00097312
-0.00115019
0.00177843
9.66633e-06
9.41351e-06
-1.80991e-06
-3.33239e-06
-3.69997e-06
-2.47315e-06
-0.000437281
-0.000548475
-0.000617655
-0.000577734
0.00462887
0.00366917
0.00339539
0.00793614
0.00178501
0.00370356
0.00707167
0.00304264
0.00319634
0.00196047
0.00430542
0.00497018
0.00438815
0.00598527
0.00522481
0.00807464
0.00632673
0.00553012
0.0072696
0.00373751
0.00171652
0.00446492
0.00481111
0.00338222
0.00677411
0.00525775
0.00511561
0.00373185
0.00331311
-0.00975172
-0.00373622
-0.00606458
-0.00377846
0.00499213
-0.00134041
-0.000963057
-0.000652981
-0.000643096
-2.70652e-05
0.0057609
0.00653081
0.00811041
-0.000271629
0.000426209
1.64444e-07
4.5853e-07
7.16051e-07
2.46308e-06
1.23332e-06
2.10457e-06
4.00461e-07
1.51382e-06
-0.00431193
-0.00223978
-0.0109019
-0.00757804
-0.00112219
-0.00600976
0.000513362
-0.00310861
-0.00255684
-0.00153997
-0.00239946
3.54034e-05
0.000198391
0.00122041
0.000885689
0.00132041
-0.000817834
-0.0076948
-0.0022516
-0.00432295
-0.00816909
-0.00109995
-0.00024994
-0.000386555
0.000539736
-0.0008447
0.00142263
7.68985e-05
7.94772e-05
4.76975e-05
0.00020568
-0.000148414
0.000123587
-7.83032e-06
-9.09656e-05
-0.00621995
-0.00300973
-0.00118179
0.00107864
-0.00038871
-0.000117234
1.26689e-06
-8.32654e-07
-4.15324e-07
9.0828e-07
-2.57504e-06
1.41588e-06
1.80634e-06
-4.52583e-06
-4.80423e-06
0.00272977
0.00317444
0.00644937
0.00384084
0.00998318
0.00293325
0.00374891
-0.000101245
-0.00172342
0.00138786
0.00938349
0.00497149
0.00278817
0.009675
0.00895409
-0.00616423
-0.000391367
0.00983116
0.00540344
0.00262963
0.00795798
0.00471934
-0.00413149
0.00150328
0.00211271
-0.00137709
2.87282e-05
7.27117e-06
2.06807e-05
-1.02235e-05
2.53517e-06
-1.26388e-05
1.38152e-05
1.11342e-05
2.74659e-06
3.80833e-06
1.37821e-06
-5.59152e-06
-4.84005e-06
-1.43693e-05
1.97215e-05
-5.44462e-06
-5.52123e-05
-3.7316e-05
-2.67396e-05
7.48994e-07
-1.44098e-05
0.00715037
0.00265901
0.00385395
0.00339895
0.00497407
0.0110929
0.0103103
-4.84938e-06
8.11857e-05
-5.07699e-05
-8.41256e-05
-6.19389e-05
-0.00291959
-0.000373816
-8.33538e-05
0.00378658
0.00492774
0.00494438
0.00614682
0.000117209
0.00298036
-0.00167259
0.00253123
-7.39212e-05
-0.000107528
-0.000202052
0.00596086
0.000245095
0.000283077
0.000364763
-0.000585519
0.00012024
0.00069696
-9.27173e-06
-0.00101474
-0.000778469
0.00108588
0.00020565
0.00207341
0.00110357
-6.5464e-07
-2.71011e-06
-3.06356e-06
1.19991e-06
-1.64531e-07
2.34911e-06
1.23267e-06
5.50252e-06
1.20121e-07
3.90089e-06
6.88191e-06
-9.20128e-06
-4.91247e-06
-4.3538e-06
3.58417e-06
0.00137624
0.00611129
0.0010484
0.00166373
0.00245265
0.00731359
0.00410874
-0.00154454
0.00160194
-0.00386056
-0.00175459
0.000719817
0.00357589
-0.000886705
0.000420663
0.000265114
0.000648878
0.000695126
0.00028741
0.000426811
0.000261951
0.000131499
0.00143045
0.000163182
-0.000325915
-7.89206e-05
-0.00239677
-0.00311233
-0.000999512
-0.0024299
-0.00222471
-0.000714873
-0.000916909
-0.000201923
-0.000231979
-0.00187214
-0.000924788
-0.00102488
-0.00029953
-0.000313386
-0.000648768
-0.00175536
-0.0016794
-0.00197661
-0.000497665
-0.00118866
-0.000554998
-0.00188112
-0.00203264
0.00195984
0.00188721
0.00361682
0.00867629
0.000124287
0.00104158
-0.000782324
0.0011938
-0.00125998
-0.000350419
-0.00137328
-0.00205804
0.00783562
0.00284589
0.00397617
0.00873842
-0.00149571
-7.14778e-05
-0.00207081
0.000440675
-0.00246702
-0.00546522
-0.00509011
-0.00340895
-0.00127008
-0.00208207
-0.00298811
-0.00223794
0.00289292
0.00106833
0.00255877
0.00249166
0.00273068
-0.000806631
0.00525781
0.00159887
-0.000130857
2.683e-05
-0.000265913
0.000364814
0.000507199
-0.000511619
-0.000381012
-0.000200506
-0.000189599
0.00012419
-0.00793782
0.00169937
0.00283521
0.00139001
0.00263392
0.000327618
0.000870732
0.000993403
0.00173632
0.00103861
0.00222038
0.00271568
-0.000365859
-0.001093
0.000476056
0.00059527
0.000733132
0.000567979
-0.000383781
-5.68611e-07
8.42347e-07
-3.50965e-06
-2.30466e-06
0.00304346
3.47145e-06
-1.36567e-06
3.55853e-06
0.000987292
0.000396631
0.000711429
-0.00139898
0.00231879
-0.00156775
-0.00150698
-0.000918979
-0.000259168
-0.00165587
-4.65131e-06
0.00127056
0.00055125
0.000746673
0.000634937
0.00176869
0.00188079
0.000828183
-0.00121842
0.000743119
0.000909432
0.00217888
0.000372404
0.00113107
0.00211637
0.00172378
-0.00117662
7.43197e-07
9.82299e-07
3.63593e-07
2.00789e-06
3.3933e-07
9.29213e-07
-1.3728e-08
2.58692e-07
4.93989e-07
4.61319e-07
-1.97915e-07
2.43348e-06
1.50184e-06
2.06153e-06
-2.86677e-05
-1.59581e-05
-5.95623e-05
-6.87566e-05
-3.07071e-05
-1.43917e-05
-2.15464e-05
-1.58728e-05
-2.34395e-05
-5.10879e-05
-0.00176404
-0.000709115
0.0029912
-0.000528181
6.0371e-06
0.00200263
-0.00176372
0.00133242
-2.22867e-06
3.2608e-07
-1.17446e-06
4.50878e-08
1.5188e-07
-3.7767e-07
1.94142e-06
2.34251e-07
0.0026912
-2.73509e-06
-3.06403e-07
-6.84546e-07
-2.59473e-06
-1.24222e-06
3.36466e-07
4.63201e-07
-3.19682e-07
1.14187e-06
-4.1431e-07
-3.06697e-07
1.65165e-07
-1.92823e-06
-4.36712e-06
2.66986e-06
2.5075e-06
1.21766e-05
2.84308e-05
8.78098e-07
-4.74786e-06
9.1195e-08
3.46797e-06
3.66578e-06
1.21085e-06
0.00400822
0.00694623
0.0027132
0.00365211
1.18337e-06
-0.00449439
-0.0033705
-0.00631771
-0.00587611
-0.00394304
-1.2142e-05
-2.56517e-05
-5.94409e-06
-2.27049e-05
0.00373225
0.00630424
0.00197259
0.00564207
0.00288753
0.00124283
0.00206
0.00261294
0.00425548
0.00208116
-0.000910346
-0.00080549
-0.00490239
-0.00272036
0.000296875
-0.00369358
-0.00424568
0.00104753
0.00167846
0.000583825
0.000796265
0.00239367
-0.000120121
0.000271334
0.000215247
-0.00370014
-0.00296008
-0.00365516
0.00455322
0.000292064
0.0016786
-0.00241089
0.00414571
-0.00662987
-0.00186228
-0.00270185
-0.00837477
0.0042461
-0.000402195
0.00127903
0.000350421
0.000170206
0.000305866
-0.00059081
0.000274706
-0.000689195
-0.000728817
-0.000301978
1.57321e-05
-0.000716889
-0.00106241
-0.000278051
0.00122405
8.66479e-06
-0.000263199
0.000247769
-0.0025202
-0.00277452
-0.00315345
0.00363318
0.0036809
0.00269043
0.000378266
0.00367376
0.00593493
0.0051345
0.00339808
0.00578794
4.93938e-05
0.000165834
1.11149e-05
4.09536e-05
0.000116821
9.09293e-06
-1.01297e-05
0.0047638
0.0031044
0.00212116
-0.00660139
-0.00167885
9.4657e-07
6.72282e-07
-1.64001e-08
1.20073e-06
-4.45028e-07
1.32971e-06
0.00313425
2.72541e-06
-8.81739e-07
0.00056664
0.00198907
-6.76618e-05
-7.94812e-05
-9.62521e-05
-6.31735e-05
-5.95073e-05
-0.000111524
-9.10739e-05
-8.89713e-05
-6.93181e-05
-0.000942526
0.00477766
0.00118076
0.00187545
-4.07302e-06
-3.28491e-06
0.00148229
0.00190679
-0.00210019
-9.42494e-05
0.000649684
0.00142163
0.000664571
-1.53013e-05
-7.78349e-06
-0.00195494
0.0005397
6.74774e-07
4.86519e-07
0.000621906
0.000663902
0.000289259
-0.000194076
-0.000536907
6.25318e-07
-1.48395e-06
7.90353e-07
-1.01856e-06
2.94389e-06
1.08273e-06
2.53171e-06
2.15015e-06
2.95666e-06
6.76853e-07
-1.50967e-07
2.86104e-06
2.15034e-06
-4.49053e-06
-3.55375e-06
-6.86664e-06
-6.8081e-06
-7.33213e-06
-6.72914e-06
-1.59524e-07
-4.11934e-07
-1.65862e-06
-4.20877e-08
-6.30674e-07
4.65744e-08
-0.000109627
-6.18388e-05
-0.000103023
-4.56227e-05
-0.000110098
-0.000101768
-0.000100756
0.00201717
-0.000246448
0.00330845
-6.98414e-05
-4.9612e-05
-0.00418649
-0.00530997
-0.00592467
-0.00101182
-9.2488e-05
-5.47757e-06
-8.6926e-05
-0.000128056
-2.50205e-05
6.55684e-06
2.89506e-06
1.17381e-05
7.50823e-06
6.16233e-06
-0.00530509
-0.00120374
-0.00273169
-0.00484617
7.70347e-06
-0.00018687
-0.000112443
-0.000131143
-5.37576e-05
0.00338973
-0.000692661
-0.00123272
0.000369311
-6.42202e-05
-0.00143577
-0.00247966
-0.00485907
-1.86334e-05
-0.00031503
-0.000484869
0.00193886
0.00124872
-1.57259e-05
-2.49375e-05
-2.60052e-05
-4.54933e-06
-9.49919e-06
-1.44118e-05
-1.06481e-05
0.00012621
-0.000246853
-0.000373988
-0.000517056
4.89902e-06
4.67589e-06
4.42322e-06
4.20997e-05
-6.94974e-05
0.000159017
-0.000656763
6.40239e-05
-0.000181583
-0.000549947
-0.00347826
0.00288564
-0.00309262
-0.000274308
0.00107267
0.000401616
0.00633703
0.00617931
0.00213889
0.00666415
-7.75174e-06
1.23168e-05
2.07494e-05
4.48183e-06
-1.14681e-05
2.98572e-05
3.45484e-06
2.72786e-05
-7.73222e-07
0.0042452
0.00798974
0.00426322
0.00875832
0.00418515
-0.00161623
-0.00555627
-0.00316806
-0.00134478
0.0036843
-0.000102927
-7.97646e-05
-0.00508901
-0.00426224
-7.60455e-05
-8.6134e-05
-0.000113315
-5.43096e-05
-2.59928e-06
-1.84519e-06
-3.22385e-06
2.57877e-07
-6.46869e-07
2.36641e-06
3.39161e-07
-1.86309e-06
-6.29809e-07
0.00582785
0.0069182
0.00196074
0.00332244
3.55118e-06
2.02754e-08
-0.00288284
-0.0015109
-0.00691617
0.000766802
-0.00558496
-0.0097909
2.38092e-06
-0.000129447
9.63123e-05
2.90216e-05
-7.89133e-05
-0.00108135
-3.36924e-05
-0.000191278
-6.61961e-05
-0.000650907
-0.000257849
-0.000346095
-0.00015286
-9.22779e-05
-0.000128344
0.000299593
0.000514629
-1.38967e-05
-5.14197e-06
-3.92579e-06
-1.61522e-06
-4.35931e-07
0.000642917
0.00092019
0.00125011
0.000581536
0.00117445
0.00181204
-0.00253871
0.00793256
0.0063936
0.00682843
-0.00232399
-0.00165777
-0.00696454
-0.00769791
7.87183e-05
5.49585e-05
1.00489e-05
7.48079e-06
1.17687e-05
3.03744e-05
2.39992e-05
2.04655e-05
3.28733e-05
-0.00142948
1.13205e-05
0.0040734
-0.00386674
-0.000877127
0.000185305
0.00206166
0.00233791
0.00502693
0.00132998
-0.00185473
0.00238542
0.00209022
0.00261693
-0.00604648
-0.00580172
-0.00439715
0.00763311
-0.00212726
-0.00476717
-0.0068558
-4.74977e-06
-9.30232e-06
0.000668111
0.000643705
0.00537369
0.00249001
0.00494901
-0.000852767
1.20321e-06
-1.75292e-07
-0.00017171
-0.000142341
-0.000229532
-0.000185585
-0.000151281
0.00247747
-0.000250289
0.00253402
0.00489034
0.00388661
0.00482385
0.00199465
0.00140608
0.00453175
-2.9754e-06
0.00321869
-0.00306157
0.00278023
0.0024327
-6.1562e-07
-0.00292218
-0.00353872
-0.00786478
-0.00709902
-0.00552749
-0.00223064
-0.00863249
-0.00326103
-0.0013265
0.00209846
0.00124172
-0.000471344
-0.00523958
-0.000683692
-0.00472434
-0.00200502
-0.00807777
0.00288525
0.00377991
0.00735885
0.00165553
0.00231286
0.0060783
-0.00102358
0.00736846
0.00746813
0.00191514
0.000108328
0.00140776
0.00132324
3.306e-06
1.68249e-06
3.89187e-06
3.19657e-06
0.0032125
0.00133911
-0.000339055
0.00174317
0.000813107
0.00143374
0.00230729
-1.90295e-07
-1.14631e-06
-6.36248e-06
-5.8606e-06
-2.52502e-06
-7.43192e-06
-9.91168e-06
0.000196147
0.00048792
2.26888e-05
0.000918092
-0.000750606
-0.000417166
0.00174594
0.00194819
0.00158394
0.00337069
0.00104598
0.00250386
3.75115e-05
-0.000223086
-0.000351188
-4.14682e-07
1.64747e-06
4.75124e-05
-1.12625e-05
0.000142932
9.69013e-05
0.000184263
0.000809266
0.00100208
0.000761978
-6.37296e-05
0.000559457
2.56535e-05
-0.000691675
-0.000873138
-0.000514509
0.000285868
0.000181639
-0.000343183
-0.000244588
-6.79281e-06
-0.00100304
0.0021574
0.00178087
0.00130144
0.000233161
0.00128225
-0.000860217
0.00120126
0.00073301
0.00540532
0.011307
0.000509762
0.000325892
0.000881184
0.00305553
0.0015465
-0.00633398
-0.00641713
-0.00767976
-0.00194766
0.00119987
0.00325643
-0.00232929
-0.00149642
-0.00213655
-0.00359004
2.52891e-06
9.99628e-07
4.96885e-06
4.07274e-06
2.43988e-06
9.88893e-07
-2.81966e-05
-3.01584e-05
-9.30251e-05
-5.4616e-05
-0.00155559
-0.00167763
-0.00162298
-0.00133771
0.00108342
1.7862e-06
1.30644e-06
-2.21269e-06
-9.67794e-07
5.49627e-07
-1.70867e-06
9.88215e-06
3.41917e-06
1.79991e-06
5.33104e-06
8.64954e-06
-5.38083e-07
-2.35343e-08
0.000258758
-0.00217455
-0.000126121
-0.00317051
-0.00175386
0.00178788
-0.00284569
-0.00294529
-0.00400645
-0.00867786
5.19389e-07
1.88618e-07
4.95816e-07
3.84871e-07
7.21672e-07
-3.01216e-08
-1.44122e-06
-5.51892e-06
-6.60082e-07
-3.68895e-06
3.40047e-06
-5.82299e-06
-2.80814e-07
1.12141e-05
-0.00232974
-0.0012368
-0.0013746
-0.00106532
-0.000398348
-0.00149396
-0.000546681
-0.00146686
0.000952103
-0.00055814
0.000428279
0.000522467
0.000151084
0.00388746
0.00165086
0.0052058
0.00454431
0.00260979
0.00232651
0.00389886
0.00143796
-0.000840426
-0.00038274
-0.000304817
-0.000720425
-5.08742e-06
-9.85715e-06
-3.58252e-06
0.00140083
0.00159178
0.000900659
-0.000943941
3.69496e-05
8.44748e-05
0.00314906
0.00137235
0.0029918
0.000861398
0.000269375
8.30747e-05
-0.00416466
-0.0143806
-0.00837898
0.00138106
0.00183333
0.00251824
-3.08491e-06
-5.34358e-06
-1.97519e-05
8.67275e-08
-3.27003e-06
2.68489e-06
-3.88158e-06
0.00166332
-4.64885e-06
0.00778033
-1.26443e-06
-5.2539e-06
-0.00334046
0.00130251
-4.57141e-05
-0.000892895
-0.000358076
-0.00015885
-0.000336951
0.00206339
0.00328434
0.00378803
-0.000310916
-1.03693e-06
0.00331242
0.0055002
0.00821422
-1.0436e-06
0.0128841
0.00653902
0.0123994
0.0114559
-0.000300088
2.57803e-05
-3.92926e-05
0.000248561
-2.92134e-05
1.43392e-06
3.05143e-06
1.7375e-06
7.06918e-07
-1.9743e-06
1.11213e-06
1.43957e-05
2.46947e-05
1.04763e-05
-0.00102831
-4.62763e-06
0.0015756
3.91081e-07
-9.36278e-07
-4.851e-08
9.07601e-07
1.79451e-06
0.00530838
0.0049629
0.00611871
0.00524901
-0.00212932
-1.17289e-06
0.00375281
0.00404037
-0.000367825
4.90711e-05
-8.86617e-05
-0.000112448
-0.000655915
-0.000633461
-0.000387744
-0.000496575
-0.000549912
-0.00217318
-0.00074924
0.00050363
0.000196823
-0.000995748
-0.00192579
-0.00122048
-0.000283987
-0.00118347
-0.00123116
-0.00162559
0.00267644
0.0030672
-0.00131303
0.00732838
0.00650239
0.00670056
-0.00695385
-0.00971275
0.0018781
0.00131691
0.00719502
0.00159905
0.00253757
0.00484457
-0.00248862
-0.00153545
-4.26743e-06
-9.85572e-06
-6.29325e-06
-7.57853e-08
-8.83257e-06
-3.20411e-06
7.06379e-05
-2.54611e-06
-6.79083e-07
-1.10833e-05
-2.18373e-05
-1.7724e-05
8.27112e-07
-1.62396e-06
-0.000154893
-0.000109959
-4.03003e-06
-7.90452e-06
1.92038e-06
-2.44465e-05
-6.88636e-05
8.03678e-06
7.61702e-06
5.36504e-06
-4.54594e-05
-3.92494e-06
0.000130884
-0.00656941
5.9207e-06
3.15057e-06
-0.00199267
-0.000680286
-0.000527975
-0.00266981
-0.00371939
-0.00365963
-0.00178272
0.00125986
-0.00316969
7.03354e-05
0.00013476
-0.000511761
-1.64692e-05
-1.26223e-05
-9.14356e-06
-1.62939e-05
-2.52974e-05
-0.000684946
0.00170547
0.00427182
0.00293892
0.00235426
0.00201472
0.00478979
0.00294198
0.0012572
-0.000319334
-0.000711746
-0.000188092
-3.80606e-05
0.000495425
9.49322e-05
-3.60551e-06
-1.59738e-06
-3.09806e-06
-2.90886e-06
0.00502988
0.00305203
0.00227988
0.00636746
0.00653883
0.00257662
0.00543434
0.00816022
0.00277742
-0.00200191
-0.000726794
0.00355612
0.00140346
0.00194812
0.00320854
0.00127075
0.00436026
-0.000728664
-0.000987806
-0.000207243
3.98125e-05
-9.33009e-05
0.000192263
8.84679e-05
-0.000530061
-0.00038324
-0.00155165
-0.000195601
-0.000103996
-0.000430766
-0.000300618
0.0010071
-2.03757e-06
-3.45254e-07
-5.61508e-06
-4.68761e-06
-1.04808e-06
1.95831e-06
-2.78906e-06
-0.00247356
-0.00152117
-0.00194707
-0.00101181
0.00112804
0.00195378
0.00173721
0.00150428
0.00138351
0.000127894
-0.000407744
3.07013e-06
4.61369e-06
1.01583e-06
-0.000679783
-0.00141031
0.00461651
0.00688616
-0.000788454
-0.000940115
-0.00121814
0.00554598
5.25675e-06
4.81868e-06
5.03472e-06
2.21679e-06
-0.00078521
-0.000391935
0.00183152
-0.000696991
0.000274654
0.00108678
0.00186858
0.00212968
-0.000227816
-0.00177977
0.00259903
-0.00169777
-0.000245579
-0.00167257
-0.000855913
-0.000693148
-0.00078338
-3.22365e-05
0.00241296
8.14135e-06
8.63937e-06
1.06997e-05
0.00117763
0.000839862
4.98361e-05
0.000428413
0.000245198
-0.00021747
-0.000293979
-0.000653436
-0.00139861
-0.000144492
-0.000189941
1.1624e-06
-2.04556e-06
-1.58808e-06
-8.39522e-08
-0.000589913
-0.000318355
-0.000463669
-0.000334281
-0.000764186
0.000782524
0.000317498
-4.42192e-05
0.000469473
0.000399929
-6.16867e-06
-6.71571e-06
-5.89978e-06
-1.59868e-06
0.000209429
0.00258416
-5.58241e-05
-7.76977e-05
0.00273284
0.00184543
0.00645163
1.3865e-06
-0.00627689
-0.00748153
-0.00373334
2.92436e-06
2.04757e-06
2.15945e-06
7.63636e-07
-0.00146696
0.00251145
0.0019973
0.00494968
0.00139586
0.00281695
0.00533452
-4.22133e-05
-0.000152316
-4.22574e-05
-0.00179844
-0.00125601
-1.4936e-05
-0.0035267
-0.000679248
-0.00384726
-0.00072018
0.00191022
0.000690652
0.001474
0.00412683
0.0032276
0.00170877
0.00314226
0.00254235
0.00162209
0.00152472
-0.000290495
0.000871583
0.00328384
0.00364701
0.00162885
0.000348717
0.000684217
0.0015995
0.000768087
-0.000407343
-0.000354202
-9.82012e-06
-1.0582e-05
-1.51123e-05
-1.09996e-05
-0.000317673
0.000659247
-0.000159114
-0.000218619
-0.00304888
-0.00117918
-0.00405782
-0.00508524
0.00241721
-0.00192925
-5.22669e-05
3.13433e-06
-2.84343e-06
-5.01584e-06
7.704e-06
7.55458e-06
6.68394e-07
4.06813e-06
-0.00477055
-8.77827e-07
-1.80619e-06
5.87353e-07
7.63318e-07
-3.77273e-07
-2.16894e-07
2.13827e-06
1.74503e-06
1.45897e-06
1.0005e-06
0.000109118
0.000411052
0.000635734
7.52734e-07
2.90556e-06
0.00097476
0.000963666
0.00158719
0.00182201
-0.0061879
-0.00166189
-7.19463e-07
-2.4703e-05
-9.19856e-06
-3.32696e-05
-0.000177694
-1.01125e-05
-3.86682e-06
-8.15986e-06
-5.68655e-05
-5.70105e-05
0.0100057
0.0106555
-0.00196485
0.00490253
0.00363683
0.00406805
0.00596853
0.00673596
-4.31443e-06
4.07784e-07
2.50802e-07
-0.0026007
-0.00271396
0.00234007
3.3757e-06
-0.00226896
-0.00115164
-0.00138941
-0.00663728
0.00314245
0.00643544
0.00662565
0.00381344
0.00285621
-0.00126491
-0.0011538
-9.5177e-05
0.00284491
-0.000534232
-0.000961898
-0.00758677
-0.000157472
0.00368108
0.00279514
-0.00200991
0.00587294
0.00691439
0.00708494
0.00685353
0.00262445
0.00716045
0.00150464
0.0012094
0.00329526
-0.000725236
-0.000279362
-0.000422649
0.00154803
0.00343324
-0.00172215
-0.00200122
-1.86709e-05
-2.94254e-05
-3.43571e-05
-8.6813e-06
0.00282093
0.00834093
-0.000343856
-0.000190092
-0.000128373
-0.000179962
2.02701e-05
-6.08448e-06
-0.00860587
0.00609913
-0.0101633
-0.00726662
0.0019632
0.0065083
0.00281615
0.00562763
-0.010412
-0.0102112
-0.00405255
-0.00879901
-0.000853932
0.00388215
0.00418094
0.00727061
0.00888931
0.00624709
0.0057725
-6.83715e-05
0.00234129
0.002581
-0.00827069
-0.00952968
-0.00762637
0.00976831
-0.00144256
-0.00250829
-0.000325359
0.00707459
-0.00547642
-0.00300702
0.00363646
0.00479028
9.37443e-07
-0.00171602
-0.00344156
-0.000211854
6.02044e-06
4.54763e-06
1.28075e-05
-0.000231578
0.00149847
0.00474352
0.00108745
0.00609151
0.00535898
0.00308417
0.00293789
-0.00277665
-0.0031116
-0.00194512
0.00166898
0.00379096
0.0025369
0.00602689
0.00142925
-0.0111575
0.00251364
0.00312408
0.00279965
0.0022918
0.00144423
0.00130713
-0.000471878
-0.00193807
0.00762658
0.0074522
1.19913e-05
-9.63686e-08
0.00792027
0.00907506
-0.0011646
-4.99265e-05
-0.000816819
-0.00147463
-0.00419313
-0.00315234
0.00259281
0.00284285
-0.00013267
-0.000209024
-0.0029533
-0.00288875
-0.00256672
-0.00765927
-0.00794463
-0.00861346
-0.00267503
-0.00495799
-0.00458642
-0.0020584
-0.013946
0.00211549
0.00187827
0.00461965
-0.000144889
-8.12798e-05
-0.000104224
-0.000325161
-0.000238489
-8.7408e-07
5.44195e-06
-0.00610838
-0.00111207
-1.29184e-05
-0.000294689
-0.000379781
-0.00103429
-0.00123443
-0.00112394
-1.29796e-05
2.08659e-06
0.00514983
1.60447e-05
6.66119e-05
-3.84344e-05
-1.6893e-05
-1.60093e-05
0.00252586
2.00888e-05
3.4967e-05
5.79709e-05
3.93867e-06
-0.00497044
-0.000842306
0.00172009
-3.89038e-06
-0.0015039
-0.00109788
0.00386208
-0.000127741
-0.00179644
-0.00206315
-0.00175842
-0.00132351
-0.00159237
0.00144207
0.000478315
-0.000177997
3.94871e-06
-4.45348e-06
-5.82495e-06
0.00224207
0.00240257
0.000367438
-1.96799e-06
2.20416e-06
-3.78918e-06
0.00545015
0.00368217
-0.000790173
-0.00122608
6.17551e-06
9.67213e-06
5.67446e-07
0.00639433
0.00581987
-0.00265823
-0.00976878
-0.00655324
-0.00288176
-0.00859605
0.00763028
0.0026148
0.0012332
-0.00105228
-0.00599255
-0.0131677
-0.00303232
5.16311e-06
0.00355715
-0.00240464
-6.37216e-06
1.95538e-05
0.000105198
0.000311498
-1.57409e-06
-4.59311e-06
-0.000501757
-1.18284e-05
-1.5348e-05
-1.04649e-05
-0.00125411
-0.00154333
0.00193429
-0.00201381
-5.0391e-05
-2.69757e-05
-2.48553e-05
-0.000120043
0.00241894
-0.00723981
-0.00745845
-0.00494138
-0.00588133
0.00122766
-0.000383955
-0.00109067
-0.00464812
-0.00889873
-0.00317244
-0.00615672
-0.00983229
-0.005538
-0.00867681
-0.0094581
-0.00676234
-0.00638286
-0.00170132
-2.01487e-06
-0.0010195
-0.00664405
-0.00282162
0.00262953
0.000446873
7.37216e-05
-5.92782e-06
0.000417211
-0.0164796
-9.57029e-07
0.00526436
0.00465991
-0.000779283
0.00326985
0.00430783
-2.13817e-07
-0.00178045
-0.00147392
-0.00210839
0.00103068
0.00168373
-0.00118636
-0.00102308
0.00360409
-9.82264e-05
-0.000135963
-5.44905e-06
3.06515e-06
-2.6122e-06
7.57612e-06
-0.00623418
3.95574e-06
6.57569e-07
1.06359e-07
6.53604e-05
0.00139042
0.00404364
0.00441985
-0.0070095
9.42707e-07
0.000448206
0.00078891
0.000868002
-0.000814633
-0.000855121
0.00441292
0.00236534
0.000494875
-0.00191026
-0.000744115
-0.000521813
-0.00741858
0.0019899
0.000767077
0.000287788
0.00794187
0.0081444
0.00170235
3.65987e-06
-8.79547e-05
-0.00211189
-0.0014237
-0.00431329
-0.0072195
0.00800911
-0.000678136
0.00329375
-0.001372
-0.00184326
8.72718e-07
0.00953493
-0.00155327
7.64333e-05
0.00449756
-0.00770166
-0.00899793
-0.00794061
-0.0114817
-0.00894439
-0.00769114
-0.000245119
-0.000504537
-0.00169549
-0.000714209
5.09913e-06
0.00597038
-0.00666989
-0.00599946
7.02481e-06
0.000571944
-0.00252327
-4.62314e-06
-3.68258e-06
-0.0073922
0.00870188
7.37934e-07
-0.000105547
-8.48923e-06
-9.95583e-06
-1.03252e-05
-8.79631e-07
-2.25819e-06
0.00730734
0.006877
4.30824e-06
4.0285e-06
5.65392e-06
6.02938e-06
-4.67935e-06
0.00602547
7.98609e-05
-0.0022942
-0.000699299
0.000220595
-0.00071297
-0.00105018
0.000293098
0.000261316
0.000519004
-0.000317703
-7.74966e-05
-1.19577e-05
-0.000198312
-0.000126683
0.00550806
-5.09325e-06
0.00217301
0.00256949
0.0024926
5.522e-06
-5.98324e-06
-5.75654e-06
0.000474401
-0.00414114
3.68149e-06
4.02512e-06
-2.68689e-07
-1.15795e-06
2.07645e-06
0.0049374
0.00470368
0.00609083
0.00391149
2.04711e-07
-0.00603977
-0.00555455
-2.79043e-07
1.92649e-06
1.10677e-07
-0.00081141
-0.005535
-0.000874179
-0.000774514
3.26527e-06
-0.00506835
0.000290812
-0.000296377
0.00269415
0.00183212
-1.22538e-06
-9.59529e-07
0.00118009
-0.00179101
-0.00154042
-0.00147902
0.00629151
0.00659093
0.00612498
0.00694591
0.00543976
0.00194551
0.00352918
4.64143e-06
5.14183e-06
-4.73758e-06
-4.16101e-06
-0.000556718
0.00558931
0.00569789
-5.84559e-06
0.00661606
-0.00749299
-0.00559294
-5.72643e-05
-1.01454e-05
-0.000922545
-0.000652705
-0.000289884
-0.000244002
-0.000590066
-0.00110255
-0.005244
-1.65093e-05
-0.000203649
-0.00322547
-0.0081054
-0.00154119
-0.000249298
0.00423458
-1.08992e-05
-1.05569e-05
0.00169906
0.00128728
0.00538004
0.00520373
0.00425962
-0.00192492
-0.00197221
0.00743737
0.00377715
0.000540623
-0.00206471
0.00598308
0.000665755
0.00145256
-7.66816e-05
-0.00118998
-0.000250351
0.00305373
-0.00155109
-0.00464425
-0.00458199
-0.00119422
0.000693069
0.00640593
-0.00112728
6.02291e-05
-0.000742671
0.000218381
-0.000462435
-0.0032235
-0.00159072
-0.000944496
-0.00500963
0.000117318
0.00120383
-0.00567375
0.00332106
-0.000132514
0.00093693
0.000987366
8.98681e-05
0.000189482
4.94687e-06
0.00852484
0.00632081
-0.0014396
-0.000573234
-0.00231012
-0.000899888
-5.19538e-06
3.95954e-06
0.0027079
0.00339005
-0.00748743
-1.34421e-06
4.41304e-06
2.8414e-07
-1.52511e-06
5.51283e-06
-7.6092e-05
-9.85709e-06
2.55162e-07
-2.72463e-07
-1.73114e-05
-0.000113409
-1.33213e-05
0.00052608
0.000813296
0.000219183
-3.09881e-06
-1.70762e-06
-0.00164563
-2.25436e-06
-7.3573e-05
8.64384e-05
7.70047e-05
-0.00698045
-0.000516863
-0.00198529
0.00616303
-9.65428e-07
-6.83374e-06
-0.00161458
0.00127925
0.000644397
0.00205338
-0.00992911
-0.00881027
-0.0117722
-0.0100972
-0.000186907
0.000523428
0.000118266
0.000897345
-0.00235673
-0.00219498
-9.92693e-05
-0.000282898
-0.00123094
-0.00169463
-0.00219753
-0.000159748
0.00499055
-0.00056249
-0.00657175
-0.000381894
-0.000304591
0.00114627
-1.5969e-05
0.00328651
0.00126563
1.24293e-05
-2.05696e-06
0.00803811
-0.000132396
0.000317151
0.00820949
0.00916708
7.14052e-07
8.57687e-06
0.000159631
-0.00923821
-0.00769141
-5.52591e-06
-0.000706286
-0.00140295
1.17091e-06
0.00346625
-0.00539877
0.00170775
0.00474481
0.00374453
0.00356283
1.08161e-06
-2.48104e-06
-4.37692e-06
-0.000346725
-0.000132613
-4.57411e-07
-0.00254119
2.1532e-06
1.74158e-06
0.000733118
0.00572058
-0.00230843
-2.54701e-06
2.21813e-07
0.00106768
-0.00722982
-0.00668507
-0.00664754
-0.00970981
0.00183931
0.00139435
0.00236709
0.00948635
0.00278127
-0.00158563
-0.00749309
-0.00695982
-0.00377507
-0.00402802
-0.000463579
-0.00542375
0.00147379
-9.99011e-07
2.9157e-08
-1.96154e-06
2.49058e-06
-0.00135281
-0.000921222
-0.00230304
-0.00243949
-2.598e-08
0.000637693
-2.14527e-06
6.14402e-06
0.00899788
0.00903196
0.00191275
0.000361037
3.1894e-06
8.77378e-07
0.000127457
-0.000428948
0.000102708
-0.000967264
5.96244e-05
0.00186796
0.000265988
5.492e-08
0.000167764
0.00918666
0.00890259
0.00232914
0.00537989
-2.61649e-05
0.00108924
0.00476666
0.00747627
-0.00848105
0.00350073
0.00654026
0.00747772
0.00404903
0.00291588
0.00348952
-5.36063e-06
-1.04331e-06
0.00820477
-0.00622506
-0.00322092
-0.000241071
0.00284868
-0.00787337
-0.0028414
-0.00231537
0.00515027
-0.000555558
0.0071518
3.79194e-06
0.00454952
0.000291488
-0.00515706
-0.00926551
-0.00948179
0.0113946
0.00490577
7.41818e-06
-5.96834e-06
-0.000119476
0.00548664
0.00640145
4.83073e-06
-0.00964074
-0.00708201
-0.00689242
-0.00184686
5.73536e-05
0.00767015
-0.00752503
-0.00143532
8.03159e-05
0.0057393
-0.00802031
-0.000465388
-0.00250322
0.00788773
0.0068483
-0.00453043
-0.00220657
-0.0163499
-0.0117778
-0.0141413
0.00787804
0.00597741
0.000473273
0.00577268
0.0072514
-0.00781664
-0.000658278
-0.00577972
-0.000222201
-0.000363398
-0.00302809
-0.000228995
-0.00510387
0.0016496
-0.00271503
0.00358779
0.00918496
0.00739543
-0.00254458
-0.00323937
0.00369311
0.00405559
-0.00879194
-0.00877577
-0.000132652
-0.0055308
0.00605614
-0.00598998
-0.00249041
-0.00206035
0.00136137
0.00019653
-0.000348719
-0.00257304
-0.00275545
0.00531027
0.000272001
-0.000152452
0.00362124
-0.00762872
-0.00842429
-0.00594417
-0.00676341
0.00145712
0.00640362
-0.00255572
-0.00501567
0.00437936
0.00970745
0.00475101
-0.000432397
-0.00537272
-0.00452075
-0.00625574
-0.00506988
4.75538e-07
0.00114289
-0.00529029
-0.0102258
-0.0037658
-0.00045545
0.00712133
0.00398935
-0.00599353
0.00163595
0.00302997
0.00590323
0.0050453
0.00932621
0.00354636
-0.0045127
-0.00267752
0.000460067
0.00033748
-0.00625099
-0.00115673
-0.0050575

SCALARS S_yz double 1
LOOKUP_TABLE  table9
4.4674e-33
4.4674e-33
-0.00602965
-0.00204007
4.4674e-33
4.4674e-33
4.4674e-33
-0.00323797
4.4674e-33
4.4674e-33
4.4674e-33
0.00745557
4.4674e-33
4.4674e-33
4.4674e-33
4.4674e-33
4.4674e-33
-0.000245636
0.0031026
4.4674e-33
4.4674e-33
-0.000670805
4.4674e-33
4.4674e-33
4.4674e-33
0.000607723
4.4674e-33
4.4674e-33
-6.08573e-08
-4.52567e-07
-3.60875e-07
-3.88008e-07
2.76229e-07
5.54649e-07
1.04408e-05
5.35052e-06
0.000420886
2.35842e-05
-1.05881e-05
2.38628e-05
2.98278e-07
5.41827e-07
0.000495017
0.00270122
4.4674e-33
4.4674e-33
4.4674e-33
4.4674e-33
4.4674e-33
4.4674e-33
4.4674e-33
4.4674e-33
4.4674e-33
4.4674e-33
4.4674e-33
4.4674e-33
4.4674e-33
4.4674e-33
4.4674e-33
4.4674e-33
4.4674e-33
4.4674e-33
4.4674e-33
4.4674e-33
4.4674e-33
4.4674e-33
-0.00381451
0.00353717
-0.00126421
-0.00286924
-0.00335223
-0.00248758
-0.00675523
-0.0090497
-0.0044228
-0.00411231
-0.00803445
-0.00453871
-0.0114934
-0.0108257
4.4674e-33
4.4674e-33
4.4674e-33
4.4674e-33
4.4674e-33
4.4674e-33
4.4674e-33
4.4674e-33
4.4674e-33
4.4674e-33
4.4674e-33
4.4674e-33
4.4674e-33
4.4674e-33
4.4674e-33
4.4674e-33
4.4674e-33
4.4674e-33
4.4674e-33
4.4674e-33
4.4674e-33
4.4674e-33
4.4674e-33
4.4674e-33
4.4674e-33
4.4674e-33
4.4674e-33
4.4674e-33
4.4674e-33
4.4674e-33
4.4674e-33
4.4674e-33
4.4674e-33
4.4674e-33
4.4674e-33
-0.00683464
0.000516986
0.0140769
-0.0152071
-0.015239
-0.000648704
4.4674e-33
4.4674e-33
4.4674e-33
4.4674e-33
4.4674e-33
4.4674e-33
4.4674e-33
4.4674e-33
4.4674e-33
4.4674e-33
4.4674e-33
4.4674e-33
4.4674e-33
4.4674e-33
4.4674e-33
4.4674e-33
4.4674e-33
4.4674e-33
4.4674e-33
4.4674e-33
4.4674e-33
4.4674e-33
4.4674e-33
4.4674e-33
4.4674e-33
4.4674e-33
4.4674e-33
4.4674e-33
4.4674e-33
4.4674e-33
4.4674e-33
4.4674e-33
4.4674e-33
4.4674e-33
4.4674e-33
4.4674e-33
4.4674e-33
4.4674e-33
4.4674e-33
4.4674e-33
4.4674e-33
4.4674e-33
4.4674e-33
4.4674e-33
4.4674e-33
4.4674e-33
4.4674e-33
4.4674e-33
4.4674e-33
4.4674e-33
0.00496188
0.00735064
0.00878304
0.00618565
0.00355715
0.00496809
-0.000913272
-0.0021359
-0.0046771
-0.00541805
-0.00620859
-0.00539615
-0.0046061
-0.0031943
4.4674e-33
4.4674e-33
4.4674e-33
4.4674e-33
4.4674e-33
4.4674e-33
4.4674e-33
4.4674e-33
4.4674e-33
4.4674e-33
4.4674e-33
4.4674e-33
4.4674e-33
4.4674e-33
4.4674e-33
4.4674e-33
4.4674e-33
4.4674e-33
4.4674e-33
4.4674e-33
4.4674e-33
4.4674e-33
4.4674e-33
4.4674e-33
4.4674e-33
4.4674e-33
4.4674e-33
4.4674e-33
4.4674e-33
4.4674e-33
4.4674e-33
4.4674e-33
4.4674e-33
4.4674e-33
4.4674e-33
4.4674e-33
4.4674e-33
4.4674e-33
4.4674e-33
4.4674e-33
4.4674e-33
4.4674e-33
4.4674e-33
4.4674e-33
4.4674e-33
-0.000627953
-0.000301709
-0.00172736
-0.00229119
-0.00219255
-0.00181551
-0.000855315
0.000564668
0.000889579
0.00166386
0.00151581
0.000645059
-0.00102574
-0.0024054
4.4674e-33
4.4674e-33
4.4674e-33
4.4674e-33
4.4674e-33
4.4674e-33
4.4674e-33
4.4674e-33
4.4674e-33
4.4674e-33
4.4674e-33
4.4674e-33
4.4674e-33
4.4674e-33
4.4674e-33
4.4674e-33
4.4674e-33
4.4674e-33
4.4674e-33
4.4674e-33
4.4674e-33
4.4674e-33
4.4674e-33
4.4674e-33
4.4674e-33
4.4674e-33
4.4674e-33
4.4674e-33
4.4674e-33
4.4674e-33
4.4674e-33
4.4674e-33
4.4674e-33
4.4674e-33
4.4674e-33
4.4674e-33
4.4674e-33
4.4674e-33
4.4674e-33
4.4674e-33
4.4674e-33
4.4674e-33
4.4674e-33
4.4674e-33
4.4674e-33
4.4674e-33
4.4674e-33
4.4674e-33
4.4674e-33
-0.00427411
-0.00482595
-0.00313909
0.00797121
0.00830459
0.00532731
4.4674e-33
4.4674e-33
4.4674e-33
4.4674e-33
4.4674e-33
4.4674e-33
4.4674e-33
4.4674e-33
4.4674e-33
4.4674e-33
4.4674e-33
4.4674e-33
4.4674e-33
4.4674e-33
4.4674e-33
4.4674e-33
4.4674e-33
4.4674e-33
4.4674e-33
4.4674e-33
4.4674e-33
4.4674e-33
4.4674e-33
4.4674e-33
4.4674e-33
4.4674e-33
4.4674e-33
4.4674e-33
4.4674e-33
4.4674e-33
4.4674e-33
4.4674e-33
4.4674e-33
4.4674e-33
4.4674e-33
0.00251768
0.00215642
0.00362899
0.00458654
0.00475557
0.00407811
0.00259494
0.000883732
0.000136314
-0.000678745
-0.00079258
-0.000558896
0.000624487
0.000942243
4.4674e-33
4.4674e-33
4.4674e-33
4.4674e-33
4.4674e-33
4.4674e-33
4.4674e-33
4.4674e-33
4.4674e-33
4.4674e-33
4.4674e-33
4.4674e-33
4.4674e-33
4.4674e-33
4.4674e-33
4.4674e-33
4.4674e-33
4.4674e-33
4.4674e-33
4.4674e-33
4.4674e-33
4.4674e-33
-3.14727e-07
-7.0003e-07
-7.92561e-07
-8.42821e-07
-7.7651e-07
-7.96318e-07
-5.20785e-07
-1.42334e-06
-1.73454e-06
-1.77424e-06
-8.63031e-07
-8.88394e-07
-1.07063e-06
-1.07489e-06
-1.0127e-06
-1.11431e-06
-1.06781e-06
-6.89705e-07
-2.9701e-07
-4.18696e-07
-3.4329e-07
-3.13824e-07
1.03382e-06
1.65705e-06
1.61697e-06
9.5806e-07
4.37264e-07
4.27772e-07
2.15396e-07
-1.4647e-07
1.35524e-07
1.75281e-07
4.87279e-07
1.82204e-06
5.39925e-06
2.26967e-05
1.19112e-07
-7.06989e-06
2.19365e-06
2.60762e-06
9.88565e-06
3.3053e-06
1.70171e-06
7.91702e-07
-6.19856e-06
1.14495e-06
2.5323e-05
-2.40039e-06
9.94067e-05
0.00035725
0.00043731
0.000469718
0.000276745
-0.000122174
-9.06415e-05
-4.00043e-05
-2.25876e-05
-8.56319e-06
0.000368748
0.000376591
0.000137032
8.94132e-06
-7.00561e-05
-8.05956e-05
-6.71536e-05
-3.60158e-05
4.35181e-05
0.000157103
0.000211785
0.000330628
-1.84838e-05
-0.000111361
-7.4597e-06
0.000230411
0.00104427
0.000374291
2.35458e-05
5.18708e-05
2.91119e-05
8.26189e-06
1.75613e-05
2.13501e-06
-3.21299e-06
3.16705e-06
-1.97336e-07
3.8043e-07
-9.10837e-07
5.96799e-08
1.45585e-06
6.8642e-07
8.14515e-07
9.4153e-07
1.64995e-07
4.12734e-07
3.53034e-07
4.82892e-07
1.3578e-06
1.63847e-06
1.02971e-06
2.42293e-07
-1.94184e-07
-5.9128e-07
-5.52859e-07
-4.00406e-07
9.40087e-07
1.75233e-06
2.0955e-06
1.915e-06
1.70436e-06
1.34898e-06
8.62834e-07
5.16413e-07
-5.45581e-08
1.05129e-06
1.82151e-06
1.90993e-06
1.27819e-06
7.05873e-07
5.05477e-07
1.15131e-06
1.34108e-06
1.93618e-06
3.53163e-06
4.76717e-06
2.49752e-06
3.77018e-06
9.14566e-06
1.38702e-05
1.43813e-05
1.59542e-05
2.83823e-05
3.02007e-05
2.62827e-05
8.9531e-06
-3.12099e-05
-7.63082e-06
-2.36912e-06
-2.35637e-05
0.000267026
0.000215865
-1.28987e-05
-0.000317905
-0.000699234
-0.00124568
-0.000273047
0.000174001
0.00137495
0.00141873
0.00052099
0.00212276
0.00167858
0.00339568
0.00332105
0.00297549
0.00199444
0.00110849
0.000113496
-0.00150697
-0.00050678
-0.00123839
-0.00248409
-0.0017071
-0.00185661
-0.00258579
-0.00275735
-0.00309394
-0.00205953
-0.00220634
-0.00218122
-0.000886084
-0.000351539
-0.00197265
-0.00357277
-0.00227497
-0.000840898
-0.0035746
-0.00288568
-0.00304837
-0.00275136
-0.00252486
-0.00155342
-0.00163454
-0.00146915
-0.000929724
-0.000292705
-0.000423605
-0.00063457
-0.00050397
-0.000191697
-0.000235825
-0.000227685
-0.000114763
-0.000143778
-6.8114e-05
0.000992574
0.00837828
0.00705819
0.00356428
-0.0012086
-0.00634792
-0.010271
-0.00559897
-0.0103632
0.000956218
0.000441127
-0.000558484
-0.000302216
-0.000305327
-0.00021378
-0.000424587
-0.000237849
-0.000212201
0.00192616
0.00118317
0.000723224
0.000835681
0.00106426
0.000534144
0.0017424
0.00248422
0.00465764
0.0117089
4.4674e-33
4.4674e-33
4.4674e-33
4.4674e-33
4.4674e-33
4.4674e-33
4.4674e-33
4.4674e-33
4.4674e-33
4.4674e-33
4.4674e-33
4.4674e-33
4.4674e-33
4.4674e-33
4.4674e-33
4.4674e-33
4.4674e-33
4.4674e-33
4.4674e-33
4.4674e-33
4.4674e-33
4.4674e-33
4.4674e-33
4.4674e-33
4.4674e-33
4.4674e-33
4.4674e-33
4.4674e-33
4.4674e-33
4.4674e-33
4.4674e-33
4.4674e-33
4.4674e-33
4.4674e-33
4.4674e-33
4.4674e-33
4.4674e-33
4.4674e-33
4.4674e-33
4.4674e-33
4.4674e-33
4.4674e-33
4.4674e-33
4.4674e-33
4.4674e-33
4.4674e-33
4.4674e-33
4.4674e-33
4.4674e-33
4.4674e-33
4.4674e-33
4.4674e-33
4.4674e-33
4.4674e-33
4.4674e-33
4.4674e-33
4.4674e-33
4.4674e-33
4.4674e-33
4.4674e-33
4.4674e-33
4.4674e-33
4.4674e-33
4.4674e-33
4.4674e-33
4.4674e-33
4.4674e-33
4.4674e-33
4.4674e-33
4.4674e-33
4.4674e-33
4.4674e-33
4.4674e-33
4.4674e-33
4.4674e-33
4.4674e-33
4.4674e-33
4.4674e-33
4.4674e-33
4.4674e-33
4.4674e-33
4.4674e-33
4.4674e-33
4.4674e-33
4.4674e-33
4.4674e-33
4.4674e-33
4.4674e-33
4.4674e-33
4.4674e-33
4.4674e-33
4.4674e-33
4.4674e-33
4.4674e-33
4.4674e-33
4.4674e-33
4.4674e-33
4.4674e-33
4.4674e-33
4.4674e-33
4.4674e-33
4.4674e-33
4.4674e-33
4.4674e-33
4.4674e-33
4.4674e-33
4.4674e-33
4.4674e-33
4.4674e-33
4.4674e-33
4.4674e-33
4.4674e-33
4.4674e-33
4.4674e-33
4.4674e-33
4.4674e-33
4.4674e-33
4.4674e-33
4.4674e-33
4.4674e-33
4.4674e-33
4.4674e-33
4.4674e-33
4.4674e-33
4.4674e-33
4.4674e-33
4.4674e-33
4.4674e-33
4.4674e-33
4.4674e-33
4.4674e-33
4.4674e-33
4.4674e-33
4.4674e-33
4.4674e-33
4.4674e-33
4.4674e-33
4.4674e-33
4.4674e-33
4.4674e-33
4.4674e-33
4.4674e-33
4.4674e-33
4.4674e-33
4.4674e-33
4.4674e-33
4.4674e-33
4.4674e-33
4.4674e-33
4.4674e-33
4.4674e-33
4.4674e-33
4.4674e-33
4.4674e-33
4.4674e-33
4.4674e-33
4.4674e-33
4.4674e-33
4.4674e-33
4.4674e-33
4.4674e-33
4.4674e-33
4.4674e-33
4.4674e-33
4.4674e-33
4.4674e-33
4.4674e-33
4.4674e-33
4.4674e-33
4.4674e-33
4.4674e-33
4.4674e-33
4.4674e-33
4.4674e-33
4.4674e-33
4.4674e-33
4.4674e-33
4.4674e-33
4.4674e-33
4.4674e-33
4.4674e-33
4.4674e-33
4.4674e-33
4.4674e-33
4.4674e-33
4.4674e-33
4.4674e-33
4.4674e-33
4.4674e-33
4.4674e-33
4.4674e-33
4.4674e-33
4.4674e-33
4.4674e-33
4.4674e-33
4.4674e-33
4.4674e-33
4.4674e-33
4.4674e-33
4.4674e-33
4.4674e-33
4.4674e-33
4.4674e-33
4.4674e-33
4.4674e-33
4.4674e-33
4.4674e-33
4.4674e-33
4.4674e-33
4.4674e-33
4.4674e-33
4.4674e-33
4.4674e-33
4.4674e-33
4.4674e-33
4.4674e-33
4.4674e-33
4.4674e-33
4.4674e-33
4.4674e-33
4.4674e-33
4.4674e-33
4.4674e-33
4.4674e-33
4.4674e-33
4.4674e-33
4.4674e-33
4.4674e-33
4.4674e-33
4.4674e-33
4.4674e-33
4.4674e-33
4.4674e-33
4.4674e-33
4.4674e-33
4.4674e-33
4.4674e-33
4.4674e-33
4.4674e-33
4.4674e-33
4.4674e-33
4.4674e-33
4.4674e-33
4.4674e-33
4.4674e-33
4.4674e-33
4.4674e-33
4.4674e-33
4.4674e-33
4.4674e-33
4.4674e-33
4.4674e-33
4.4674e-33
4.4674e-33
4.4674e-33
4.4674e-33
4.4674e-33
4.4674e-33
4.4674e-33
4.4674e-33
4.4674e-33
4.4674e-33
4.4674e-33
4.4674e-33
4.4674e-33
4.4674e-33
4.4674e-33
4.4674e-33
4.4674e-33
4.4674e-33
4.4674e-33
4.4674e-33
4.4674e-33
4.4674e-33
4.4674e-33
4.4674e-33
4.4674e-33
4.4674e-33
4.4674e-33
4.4674e-33
4.4674e-33
4.4674e-33
4.4674e-33
4.4674e-33
4.4674e-33
4.4674e-33
4.4674e-33
4.4674e-33
4.4674e-33
4.4674e-33
4.4674e-33
4.4674e-33
4.4674e-33
4.4674e-33
0.000629267
-0.000930652
-0.00619504
-0.0021855
-0.00135299
-0.00142531
-0.00175522
-0.000540038
0.00147053
0.000190475
0.00183576
0.00532889
0.00349422
0.000190924
-0.00415141
-0.00169226
-0.00156834
-0.000413126
-0.00019031
-0.000495065
-0.000459868
-0.00175783
-0.00189834
-0.00176329
-0.000278661
-0.00134256
-0.000727268
0.00757918
-0.0124555
0.000532214
-0.000181419
-0.00182884
4.96011e-05
-0.00182496
-0.0038523
-0.00387731
-0.00129836
-0.00340792
-0.00370752
-0.00315411
-0.00465672
0.00777265
4.4674e-33
4.4674e-33
4.4674e-33
4.4674e-33
4.4674e-33
4.4674e-33
4.4674e-33
4.4674e-33
4.4674e-33
4.4674e-33
4.4674e-33
4.4674e-33
4.4674e-33
4.4674e-33
4.4674e-33
4.4674e-33
4.4674e-33
4.4674e-33
4.4674e-33
4.4674e-33
4.4674e-33
4.4674e-33
4.4674e-33
4.4674e-33
4.4674e-33
4.4674e-33
4.4674e-33
4.4674e-33
4.4674e-33
4.4674e-33
4.4674e-33
4.4674e-33
4.4674e-33
4.4674e-33
4.4674e-33
4.4674e-33
4.4674e-33
4.4674e-33
4.4674e-33
4.4674e-33
4.4674e-33
4.4674e-33
4.4674e-33
4.4674e-33
4.4674e-33
4.4674e-33
4.4674e-33
4.4674e-33
4.4674e-33
4.4674e-33
4.4674e-33
4.4674e-33
4.4674e-33
4.4674e-33
4.4674e-33
4.4674e-33
4.4674e-33
4.4674e-33
4.4674e-33
4.4674e-33
4.4674e-33
4.4674e-33
4.4674e-33
4.4674e-33
4.4674e-33
4.4674e-33
4.4674e-33
4.4674e-33
4.4674e-33
4.4674e-33
4.4674e-33
4.4674e-33
4.4674e-33
4.4674e-33
4.4674e-33
4.4674e-33
4.4674e-33
4.4674e-33
4.4674e-33
4.4674e-33
4.4674e-33
4.4674e-33
4.4674e-33
4.4674e-33
4.4674e-33
4.4674e-33
4.4674e-33
4.4674e-33
4.4674e-33
4.4674e-33
4.4674e-33
4.4674e-33
4.4674e-33
4.4674e-33
4.4674e-33
4.4674e-33
4.4674e-33
4.4674e-33
4.4674e-33
4.4674e-33
4.4674e-33
4.4674e-33
4.4674e-33
4.4674e-33
4.4674e-33
4.4674e-33
4.4674e-33
4.4674e-33
4.4674e-33
4.4674e-33
4.4674e-33
4.4674e-33
4.4674e-33
4.4674e-33
4.4674e-33
4.4674e-33
4.4674e-33
4.4674e-33
4.4674e-33
4.4674e-33
4.4674e-33
4.4674e-33
4.4674e-33
4.4674e-33
4.4674e-33
4.4674e-33
4.4674e-33
4.4674e-33
4.4674e-33
4.4674e-33
4.4674e-33
4.4674e-33
4.4674e-33
4.4674e-33
4.4674e-33
4.4674e-33
4.4674e-33
4.4674e-33
4.4674e-33
4.4674e-33
4.4674e-33
4.4674e-33
4.4674e-33
4.4674e-33
4.4674e-33
4.4674e-33
4.4674e-33
4.4674e-33
4.4674e-33
4.4674e-33
4.4674e-33
4.4674e-33
4.4674e-33
4.4674e-33
4.4674e-33
4.4674e-33
4.4674e-33
4.4674e-33
4.4674e-33
4.4674e-33
4.4674e-33
4.4674e-33
4.4674e-33
4.4674e-33
4.4674e-33
4.4674e-33
4.4674e-33
4.4674e-33
4.4674e-33
4.4674e-33
4.4674e-33
4.4674e-33
4.4674e-33
4.4674e-33
4.4674e-33
4.4674e-33
4.4674e-33
4.4674e-33
4.4674e-33
4.4674e-33
4.4674e-33
4.4674e-33
4.4674e-33
4.4674e-33
4.4674e-33
4.4674e-33
4.4674e-33
4.4674e-33
4.4674e-33
4.4674e-33
4.4674e-33
4.4674e-33
4.4674e-33
4.4674e-33
4.4674e-33
4.4674e-33
4.4674e-33
4.4674e-33
4.4674e-33
4.4674e-33
4.4674e-33
4.4674e-33
4.4674e-33
4.4674e-33
4.4674e-33
4.4674e-33
4.4674e-33
4.4674e-33
4.4674e-33
4.4674e-33
4.4674e-33
4.4674e-33
4.4674e-33
4.4674e-33
4.4674e-33
4.4674e-33
4.4674e-33
4.4674e-33
4.4674e-33
4.4674e-33
4.4674e-33
4.4674e-33
4.4674e-33
4.4674e-33
4.4674e-33
4.4674e-33
4.4674e-33
4.4674e-33
4.4674e-33
4.4674e-33
4.4674e-33
4.4674e-33
4.4674e-33
4.4674e-33
4.4674e-33
4.4674e-33
4.4674e-33
4.4674e-33
4.4674e-33
4.4674e-33
4.4674e-33
4.4674e-33
4.4674e-33
4.4674e-33
4.4674e-33
4.4674e-33
4.4674e-33
4.4674e-33
4.4674e-33
4.4674e-33
4.4674e-33
4.4674e-33
4.4674e-33
4.4674e-33
4.4674e-33
4.4674e-33
4.4674e-33
4.4674e-33
4.4674e-33
4.4674e-33
4.4674e-33
4.4674e-33
4.4674e-33
4.4674e-33
4.4674e-33
4.4674e-33
4.4674e-33
4.4674e-33
4.4674e-33
4.4674e-33
4.4674e-33
4.4674e-33
4.4674e-33
4.4674e-33
4.4674e-33
4.4674e-33
4.4674e-33
4.4674e-33
4.4674e-33
4.4674e-33
4.4674e-33
4.4674e-33
4.4674e-33
4.4674e-33
4.4674e-33
4.4674e-33
4.4674e-33
4.4674e-33
4.4674e-33
4.4674e-33
4.4674e-33
4.4674e-33
4.4674e-33
4.4674e-33
4.4674e-33
4.4674e-33
4.4674e-33
4.4674e-33
4.4674e-33
4.4674e-33
4.4674e-33
4.4674e-33
4.4674e-33
4.4674e-33
4.4674e-33
4.4674e-33
4.4674e-33
4.4674e-33
4.4674e-33
4.4674e-33
4.4674e-33
4.4674e-33
4.4674e-33
4.4674e-33
4.4674e-33
4.4674e-33
4.4674e-33
4.4674e-33
4.4674e-33
4.4674e-33
4.4674e-33
4.4674e-33
4.4674e-33
4.4674e-33
4.4674e-33
4.4674e-33
4.4674e-33
4.4674e-33
4.4674e-33
4.4674e-33
4.4674e-33
4.4674e-33
4.4674e-33
4.4674e-33
4.4674e-33
4.4674e-33
4.4674e-33
4.4674e-33
4.4674e-33
4.4674e-33
4.4674e-33
4.4674e-33
4.4674e-33
4.4674e-33
4.4674e-33
4.4674e-33
4.4674e-33
4.4674e-33
4.4674e-33
4.4674e-33
4.4674e-33
4.4674e-33
4.4674e-33
4.4674e-33
4.4674e-33
4.4674e-33
4.4674e-33
4.4674e-33
4.4674e-33
4.4674e-33
4.4674e-33
4.4674e-33
4.4674e-33
4.4674e-33
4.4674e-33
4.4674e-33
4.4674e-33
4.4674e-33
4.4674e-33
4.4674e-33
4.4674e-33
4.4674e-33
4.4674e-33
4.4674e-33
4.4674e-33
4.4674e-33
4.4674e-33
4.4674e-33
4.4674e-33
4.4674e-33
4.4674e-33
4.4674e-33
4.4674e-33
4.4674e-33
4.4674e-33
4.4674e-33
4.4674e-33
4.4674e-33
4.4674e-33
4.4674e-33
4.4674e-33
4.4674e-33
4.4674e-33
4.4674e-33
4.4674e-33
4.4674e-33
4.4674e-33
4.4674e-33
4.4674e-33
4.4674e-33
4.4674e-33
4.4674e-33
4.4674e-33
4.4674e-33
4.4674e-33
4.4674e-33
4.4674e-33
4.4674e-33
4.4674e-33
4.4674e-33
4.4674e-33
4.4674e-33
4.4674e-33
4.4674e-33
4.4674e-33
4.4674e-33
4.4674e-33
4.4674e-33
4.4674e-33
4.4674e-33
4.4674e-33
4.4674e-33
4.4674e-33
4.4674e-33
4.4674e-33
4.4674e-33
4.4674e-33
4.4674e-33
4.4674e-33
4.4674e-33
4.4674e-33
4.4674e-33
4.4674e-33
4.4674e-33
4.4674e-33
4.4674e-33
4.4674e-33
4.4674e-33
4.4674e-33
4.4674e-33
4.4674e-33
4.4674e-33
4.4674e-33
4.4674e-33
4.4674e-33
4.4674e-33
4.4674e-33
4.4674e-33
4.4674e-33
4.4674e-33
4.4674e-33
4.4674e-33
4.4674e-33
4.4674e-33
4.4674e-33
4.4674e-33
4.4674e-33
4.4674e-33
4.4674e-33
4.4674e-33
4.4674e-33
4.4674e-33
4.4674e-33
4.4674e-33
4.4674e-33
4.4674e-33
4.4674e-33
4.4674e-33
4.4674e-33
4.4674e-33
4.4674e-33
4.4674e-33
4.4674e-33
4.4674e-33
4.4674e-33
4.4674e-33
4.4674e-33
4.4674e-33
4.4674e-33
4.4674e-33
4.4674e-33
4.4674e-33
4.4674e-33
4.4674e-33
4.4674e-33
4.4674e-33
4.4674e-33
4.4674e-33
4.4674e-33
4.4674e-33
4.4674e-33
4.4674e-33
4.4674e-33
4.4674e-33
4.4674e-33
4.4674e-33
4.4674e-33
4.4674e-33
4.4674e-33
4.4674e-33
4.4674e-33
4.4674e-33
4.4674e-33
4.4674e-33
4.4674e-33
4.4674e-33
4.4674e-33
4.4674e-33
4.4674e-33
4.4674e-33
4.4674e-33
4.4674e-33
4.4674e-33
4.4674e-33
4.4674e-33
4.4674e-33
4.4674e-33
4.4674e-33
4.4674e-33
4.4674e-33
4.4674e-33
4.4674e-33
4.4674e-33
4.4674e-33
4.4674e-33
4.4674e-33
4.4674e-33
4.4674e-33
4.4674e-33
4.4674e-33
4.4674e-33
4.4674e-33
4.4674e-33
4.4674e-33
4.4674e-33
4.4674e-33
4.4674e-33
4.4674e-33
4.4674e-33
4.4674e-33
4.4674e-33
4.4674e-33
4.4674e-33
4.4674e-33
4.4674e-33
4.4674e-33
4.4674e-33
4.4674e-33
4.4674e-33
4.4674e-33
4.4674e-33
4.4674e-33
4.4674e-33
4.4674e-33
4.4674e-33
4.4674e-33
4.4674e-33
4.4674e-33
4.4674e-33
4.4674e-33
4.4674e-33
4.4674e-33
4.4674e-33
4.4674e-33
4.4674e-33
4.4674e-33
4.4674e-33
4.4674e-33
4.4674e-33
4.4674e-33
4.4674e-33
4.4674e-33
4.4674e-33
4.4674e-33
4.4674e-33
4.4674e-33
4.4674e-33
4.4674e-33
4.4674e-33
4.4674e-33
4.4674e-33
4.4674e-33
4.4674e-33
4.4674e-33
4.4674e-33
4.4674e-33
4.4674e-33
4.4674e-33
4.4674e-33
4.4674e-33
4.4674e-33
4.4674e-33
4.4674e-33
4.4674e-33
4.4674e-33
4.4674e-33
4.4674e-33
4.4674e-33
4.4674e-33
4.4674e-33
4.4674e-33
4.4674e-33
4.4674e-33
4.4674e-33
4.4674e-33
4.4674e-33
4.4674e-33
4.4674e-33
4.4674e-33
4.4674e-33
4.4674e-33
4.4674e-33
4.4674e-33
4.4674e-33
4.4674e-33
4.4674e-33
4.4674e-33
4.4674e-33
4.4674e-33
4.4674e-33
4.4674e-33
4.4674e-33
4.4674e-33
4.4674e-33
4.4674e-33
4.4674e-33
4.4674e-33
4.4674e-33
4.4674e-33
4.4674e-33
4.4674e-33
4.4674e-33
4.4674e-33
4.4674e-33
4.4674e-33
4.4674e-33
4.4674e-33
4.4674e-33
4.4674e-33
4.4674e-33
-0.000994665
0.00100301
-4.76822e-06
-4.69485e-05
-0.000429019
6.92502e-05
0.00053846
0.0011439
0.00183067
0.00255803
0.00173904
0.00130169
0.000412589
0.00539968
-0.00207328
0.000734692
0.000169311
-0.000444838
-0.000262773
-4.84005e-05
0.000152032
0.000353716
0.000861166
0.000628263
0.000559391
0.000149891
-0.00118127
0.00485181
-0.00240453
0.000135768
-0.000428832
-0.000895638
-0.00160693
-0.000621866
-0.000133042
0.000319214
0.000726941
0.000431761
0.000235455
1.01943e-05
-0.00122685
0.00188891
-6.88967e-07
-1.16292e-06
-1.37082e-06
-1.72218e-06
-1.67769e-06
-1.50208e-06
-1.38428e-06
-1.30737e-06
-1.95388e-06
-2.35344e-06
-2.71801e-06
-2.67097e-06
-2.42215e-06
-2.23158e-06
-1.26157e-06
-1.85326e-06
-2.46441e-06
-2.90232e-06
-2.772e-06
-2.39136e-06
-2.2598e-06
-8.29406e-07
-1.30644e-06
-1.6428e-06
-1.78252e-06
-1.76941e-06
-1.63419e-06
-1.36587e-06
7.01951e-07
1.27161e-06
1.22753e-06
9.24779e-07
4.70342e-07
9.3119e-07
7.6234e-07
3.6101e-07
1.1533e-07
2.92647e-07
2.1118e-07
5.08375e-08
1.59953e-06
2.87252e-06
6.24473e-06
1.47825e-05
2.4971e-06
4.77873e-06
8.76187e-06
1.70805e-05
2.88721e-06
5.18382e-06
9.09187e-06
1.93909e-05
1.9456e-06
3.09415e-06
6.11009e-06
1.36235e-05
-1.64513e-05
-1.69914e-05
-1.2567e-05
1.03244e-05
5.87683e-05
-1.96357e-05
-2.48577e-05
-4.38478e-05
2.44803e-05
0.000187709
-2.24434e-05
-1.76902e-05
-3.01153e-05
3.0177e-06
0.000120204
-1.28021e-05
-1.2859e-05
-4.94292e-05
-3.89112e-05
5.55475e-05
0.000330907
0.000234194
0.000123055
-3.61386e-05
0.000455098
0.000295324
5.48319e-05
-4.98249e-05
0.000443429
0.000198097
0.00010515
-4.35453e-05
0.000424887
0.000244736
8.59685e-05
-1.40426e-05
5.32807e-07
1.72672e-08
-4.02894e-07
-6.81893e-07
-6.95292e-07
-9.38702e-07
-9.69457e-07
-6.52784e-07
-9.03822e-07
-2.78977e-07
7.487e-05
-0.000364083
0.000505307
0.00143504
-8.21613e-07
-6.99449e-08
-1.66617e-05
1.7189e-05
-3.19579e-05
-0.000306495
-0.000452222
0.0029612
0.00265329
0.000714675
-4.9803e-07
3.73694e-07
1.46274e-06
1.86421e-06
1.06932e-06
-6.463e-07
3.50238e-05
7.85405e-06
1.31553e-05
2.92199e-05
5.8062e-06
4.60565e-05
3.15361e-05
4.87543e-06
6.08273e-05
2.41409e-05
2.05901e-05
1.19824e-05
1.03837e-05
7.77838e-07
1.08376e-06
1.0166e-06
6.16893e-05
3.10769e-06
7.86162e-07
-2.16974e-06
0.000140416
0.000144414
-9.60936e-05
3.40778e-05
-1.92932e-05
-4.04568e-07
0.000130453
-6.50165e-06
-4.78174e-07
-8.06705e-07
-7.833e-07
-5.43945e-07
-5.7847e-07
2.01857e-07
0.00208224
0.000324107
0.00219046
1.92373e-06
-1.7739e-06
-4.10005e-07
6.45275e-05
0.00272726
2.70968e-06
4.66181e-06
0.000953907
8.45159e-07
-1.08689e-06
0.000581698
6.17304e-07
-3.02369e-06
0.000126999
-2.22602e-05
-8.31006e-07
7.29897e-06
-1.65381e-06
0.000122365
2.54299e-06
8.83994e-06
5.68927e-05
3.08143e-05
2.15898e-05
5.74396e-05
8.91286e-07
7.46033e-05
0.000113796
3.76807e-05
0.000112271
0.000130249
1.65122e-05
4.8769e-06
1.94704e-06
4.17802e-06
2.05876e-06
-3.54585e-06
4.16372e-05
-2.40022e-05
9.58426e-06
5.50861e-05
9.58726e-05
-5.73339e-06
-1.12178e-06
1.35389e-06
-1.40656e-06
-4.22027e-08
-6.65222e-05
1.14635e-06
1.36343e-06
0.000924517
0.00030152
3.21295e-07
1.13337e-05
6.52368e-07
0.000126078
5.70854e-05
-6.24379e-07
0.000798046
1.33001e-06
0.000983026
0.00069191
6.74323e-08
-1.37826e-06
-7.74614e-05
0.000221662
9.08921e-05
4.97965e-05
6.61196e-05
6.95462e-06
3.72391e-05
1.10218e-05
0.00012948
2.6693e-05
1.93495e-05
4.27158e-06
3.08756e-06
0.000195368
3.12651e-06
0.000149724
0.000235483
7.52991e-05
-1.25482e-06
0.000214229
5.45762e-05
1.60964e-05
-4.1304e-05
4.62087e-06
0.000125423
7.1783e-07
-2.24727e-06
-2.59585e-07
-8.12431e-07
-1.77204e-06
-5.53383e-07
0.000701891
0.000528674
2.10028e-06
-4.07796e-08
-4.17603e-05
0.000104949
1.63957e-06
-7.22995e-07
0.000592701
0.000461515
-9.76998e-05
-9.86417e-05
0.000467837
-9.21075e-07
0.000262271
1.96263e-06
2.97441e-06
1.6593e-05
9.65766e-06
7.02652e-05
6.85139e-05
2.3777e-05
5.12925e-05
3.61638e-05
3.42423e-06
0.000261479
0.000236761
0.000121392
0.000188618
4.5379e-06
1.66043e-06
0.00016553
-1.97562e-06
-1.17732e-06
0.000213346
-3.12174e-06
3.49261e-05
2.48186e-05
5.70554e-05
-8.11825e-05
-2.34254e-06
-1.01684e-06
4.89492e-07
-1.79585e-06
0.000259004
0.000304274
0.000279408
0.000354149
0.000364337
1.26566e-06
-4.21904e-07
-1.7909e-06
-2.0594e-06
-2.91079e-06
9.88054e-06
1.88033e-05
2.99145e-05
1.99168e-06
3.98397e-06
9.54558e-05
6.54296e-05
0.000282874
0.000103472
3.7931e-05
4.23293e-06
0.000223167
0.000153371
-3.64966e-06
1.54095e-05
-8.77781e-06
0.000142136
3.95299e-05
6.13491e-05
0.000257187
-2.3856e-06
-1.76453e-06
-9.10675e-07
-2.5495e-06
0.000233188
0.000262528
0.000264718
2.44418e-06
1.79754e-06
-2.5371e-06
-7.14083e-07
1.53726e-05
6.71153e-06
1.86305e-05
3.44701e-06
1.53961e-06
3.33316e-05
9.13182e-05
0.000196235
0.000148799
-2.64664e-06
-3.59652e-06
-3.73077e-06
8.55165e-06
0.000221136
0.000232484
-1.47892e-06
-2.17998e-06
8.65821e-07
-1.29653e-06
1.36638e-06
0.00028687
0.000246012
-1.86607e-06
-3.38226e-06
-1.15645e-06
5.15525e-05
-1.23888e-06
1.72944e-06
2.39977e-06
2.70048e-06
2.37174e-06
1.62871e-06
1.12929e-06
3.11627e-07
-4.49831e-07
-7.68254e-07
2.80078e-06
3.6336e-06
3.81548e-06
3.31782e-06
2.32211e-06
2.11758e-06
4.23974e-07
2.74685e-08
-1.44829e-06
2.79618e-06
3.67773e-06
3.80172e-06
3.24229e-06
2.20731e-06
2.13118e-06
6.44396e-07
-1.92306e-07
-1.20394e-06
1.57795e-06
2.37197e-06
2.61032e-06
2.32004e-06
1.55416e-06
1.17682e-06
2.46071e-07
1.88247e-07
-4.24728e-07
-1.17348e-06
-4.59705e-07
-8.64228e-07
-2.68983e-07
-7.77184e-07
8.15686e-06
-9.33153e-07
2.09304e-06
2.86759e-06
0.000192028
1.43136e-06
1.63288e-06
1.00632e-06
2.17285e-06
5.01962e-06
-2.96763e-10
1.62414e-07
-6.23469e-07
-9.18631e-07
-7.63535e-07
-8.40271e-07
-4.46991e-07
2.7915e-07
1.02536e-06
1.51806e-06
1.96437e-06
1.72835e-06
1.40166e-06
4.48034e-06
4.01024e-08
6.61002e-06
-1.73112e-05
1.08905e-05
-2.38808e-06
1.83328e-05
4.60817e-07
2.65109e-05
-6.89713e-06
3.14481e-05
0.000167923
4.86202e-05
6.55034e-05
9.69835e-05
0.000107488
0.000120136
0.000452965
0.000620342
0.000336049
0.000988121
0.0011062
0.000920179
0.000637588
0.000145342
-0.000815125
0.000119122
-0.000808638
0.000643678
0.000102341
-0.0011892
0.00023042
0.000236436
0.00112539
0.000836096
0.000704701
0.00175201
-0.00248556
-0.00153473
-0.00189537
-0.001859
-0.00165275
-0.00120538
-0.00171346
-0.000154233
-0.000223934
-0.000247736
-0.00029862
-0.000548122
-0.000728537
-0.000105577
-0.000123135
-0.000920506
-0.000283061
2.36108e-05
-0.000703705
-0.000517271
-0.000372023
0.000185485
-0.00024971
-0.00151475
0.000424602
-0.00141404
-0.00210362
-0.000963543
8.2288e-05
0.000104032
7.16106e-06
-3.9863e-05
-9.34628e-07
-5.19832e-07
-9.59242e-07
-4.99488e-07
-1.96654e-07
-5.51817e-07
3.85588e-07
6.75827e-09
-0.00312522
0.000939244
-0.0001189
1.1041e-06
3.36958e-07
1.06804e-05
-0.00284589
-2.2176e-05
0.000468228
8.10349e-07
2.1276e-05
9.10237e-05
0.000110459
0.00180595
-0.000472592
-0.00178165
1.35843e-06
1.29164e-06
0.000741528
0.0010181
-0.000344743
-0.000663924
-9.79304e-05
-0.00047525
-0.000290051
-0.00220456
-0.000881625
-0.000520758
-0.000260221
0.00168679
0.00158812
0.000216964
-6.31598e-05
0.0003496
-8.85384e-06
-0.000243558
8.62048e-06
-0.000130775
-0.00196835
-0.00109892
-0.00209884
4.20527e-07
5.4258e-07
2.34278e-06
1.04236e-06
-1.93627e-07
2.6476e-06
2.03124e-06
5.69642e-06
2.90388e-05
4.51309e-05
4.98192e-05
7.34152e-05
0.000288831
0.000206516
-0.000449952
-0.000697479
-0.000165729
-0.000456127
0.00115907
-0.00155559
-0.000202315
-0.000651843
0.00243293
0.00212081
0.000141196
-6.31574e-06
0.000973626
0.00130599
0.00111134
-0.000198429
0.00113095
0.000205999
-0.000141865
-0.00304884
-0.00129702
-7.79378e-05
-8.84313e-05
-6.71492e-07
6.70775e-07
-2.45878e-05
0.000198963
2.4829e-06
3.72201e-05
-5.05988e-06
2.61108e-05
0.00019982
-5.94171e-06
-8.29093e-07
-7.11156e-07
-0.00146607
-1.57197e-07
-0.000161888
-1.04346e-06
-9.70686e-05
1.45005e-07
-0.000972436
0.000820075
-0.000808671
0.00323852
-0.000824057
-0.00183911
0.000258447
-0.00321496
-0.000959538
0.00101802
-0.00362427
4.91317e-06
0.00217052
6.05335e-05
-0.000304652
0.00100142
0.000730388
-0.000950045
-0.000294771
0.00227147
-0.00153221
0.000303881
-0.00091022
0.00102192
-0.00140268
-0.00142949
-0.000761184
0.000403942
-0.000635857
0.000233522
-0.000492727
0.000441514
-0.000406924
-0.000490631
0.00138295
-0.00076143
0.00172429
7.93957e-05
-0.000740919
5.5573e-05
0.000454688
0.00152781
2.10428e-07
3.7016e-05
-0.000555066
0.000249912
0.000407238
1.77104e-06
0.000171411
2.49258e-05
0.00102757
4.11806e-06
0.000105683
8.12174e-06
1.15885e-06
-0.000385511
0.00132039
0.000145432
-3.5305e-07
6.20284e-07
1.71268e-05
0.00113903
3.7265e-06
-0.00111575
-0.000405849
1.75481e-06
1.01874e-06
-0.00017601
-6.53493e-07
6.29566e-05
-1.99362e-06
-1.39852e-06
4.89869e-05
4.18347e-06
2.68929e-06
0.000135737
-1.08095e-06
-1.57062e-06
-6.64789e-07
-1.75035e-06
-0.000378225
6.4432e-06
0.00153434
0.000179136
0.00102788
1.37485e-05
-0.000447907
5.8463e-07
1.94407e-06
0.000523871
0.000697201
-0.000559548
0.00154407
-0.000535446
0.00156737
0.000210179
-0.000545152
0.00107855
-0.000545096
0.00131943
-0.000576254
-0.000911623
0.00161962
-0.0022461
-0.00140738
0.000970896
-0.000526889
2.41218e-06
0.00146336
-0.000657408
0.00128749
-0.00110471
-0.000565964
0.00130186
-0.000854171
0.000852096
0.00220939
-0.00179416
0.00217126
-0.00241745
0.00168419
-0.00283729
0.00170908
-0.00268697
7.22814e-05
-8.62031e-05
-0.00222985
4.54584e-05
-0.000727659
0.000393601
-0.000633397
-0.000905164
7.87502e-05
5.75173e-05
0.000142049
3.77945e-05
2.33202e-05
0.00117837
0.000912751
4.3037e-06
4.16077e-06
0.000101833
5.37054e-07
-2.75546e-07
1.72335e-06
-0.000282634
-1.77342e-06
-4.79519e-05
-0.000188239
-1.13176e-06
0.000160176
-3.16832e-06
7.52064e-07
0.000141153
9.75451e-06
6.53623e-05
2.75958e-05
0.000118106
-1.76537e-06
-8.31079e-07
-1.07633e-06
-1.45569e-06
-0.000310601
-0.000526573
6.35532e-06
0.0010108
3.13572e-06
0.00130399
0.000175468
0.000203958
3.11545e-06
0.00156235
0.000897766
-0.000500381
0.000451949
-0.000339282
-0.000249215
1.66513e-05
0.00130408
0.00033295
0.00112672
-0.000643496
0.000739199
-0.000858437
-0.000675702
0.000388324
-0.00122504
-0.000156163
0.000791759
-0.000562737
0.000910321
-0.0010102
-0.00159178
-0.00207426
6.59318e-05
0.0016907
0.00178539
-0.00118815
-0.0015198
-0.00288858
-0.00196498
0.000694121
0.00111148
-0.00035891
-0.000224064
-0.00130898
-0.00192428
1.07685e-06
1.23621e-07
4.42624e-05
0.00104678
0.000577791
0.000133255
7.92603e-05
0.000778716
4.532e-06
2.91604e-05
0.000103324
4.68335e-06
-3.20844e-07
-0.000264783
-1.58272e-06
-2.2253e-05
7.5865e-05
0.00018946
-2.63011e-06
0.000167306
0.000154149
2.03257e-05
5.4036e-05
9.89481e-05
-7.66296e-05
-1.57116e-06
-1.55781e-06
-8.65805e-07
-4.85264e-07
-5.71758e-05
-0.000373364
0.00137803
0.00110447
0.00142646
7.85683e-06
-0.000259606
0.000233769
0.000216425
0.00115781
0.000318592
4.05529e-06
0.00111819
-0.000125131
-0.000225253
0.00131662
0.000174424
0.00129913
-0.000506975
0.000704208
0.000295371
8.75086e-05
0.000977132
-0.00053355
6.00596e-05
0.000403355
-0.00095849
-0.000941573
-0.000382172
0.000608643
0.00188159
0.0016832
0.0017161
-0.000458042
-0.00281491
-0.00250253
0.000233398
-0.00180728
3.6771e-06
0.000480941
0.000931229
1.80693e-05
2.90022e-05
0.000638552
4.65107e-06
1.87277e-06
-2.89564e-07
2.99503e-05
0.000214371
-2.16957e-06
0.000103606
-1.13538e-06
0.000187715
0.000166641
9.74947e-06
0.000958614
-1.37859e-06
0.000138341
0.000196277
0.000732607
0.00102331
0.000891191
0.000101998
0.0011147
0.00027514
-0.000157954
0.000855101
9.72408e-07
0.000160871
0.00109562
0.000931438
0.000925921
8.14913e-05
0.000274929
0.00101917
-0.000331831
0.000863199
-0.00100025
-0.000227555
-0.00106339
-0.00242804
-0.00130803
-0.0010683
0.000244979
-0.000667888
0.000970293
0.00139537
-0.000557678
-0.00186108
-0.00159403
0.000349894
0.00062418
0.000503864
8.05813e-05
3.35094e-07
-1.71923e-06
0.000113077
-2.83305e-06
0.000159272
1.72741e-06
-6.78575e-08
-9.89341e-08
-0.000356157
0.000556968
0.000628213
0.000815357
0.000729131
0.00103061
0.000365285
0.000779903
0.000706619
0.000263911
-1.6626e-05
0.000842261
0.000412623
0.000939942
0.000765794
0.00104368
0.000943948
0.00102367
6.53229e-05
0.000188239
-0.000734695
-0.000777707
-0.00143585
-0.00125627
0.000359689
-0.000402179
0.000519087
0.000142962
0.000402734
0.000250762
-0.000274246
0.000411674
2.44703e-06
0.000243567
0.000229153
-3.15314e-06
0.000477886
0.000371492
0.00160088
0.000114082
-0.00050767
0.000414193
0.000189179
-3.84312e-05
-0.00575938
-0.0110494
-0.00810304
-0.00618916
-0.00662161
-0.00619191
-0.00907647
-0.00851848
-0.00471364
-0.00629726
-0.00182171
-0.00278251
-0.00238459
-0.00198225
-0.00548443
-0.00590913
-0.00768431
-0.00457644
-0.00571219
-0.00716622
-0.00305003
-0.0072957
-0.00596305
-0.00789548
-0.00211017
-0.00575314
-0.00191398
0.00207178
-0.00286679
-0.00446518
-0.00348365
-0.00640066
-0.00405947
-0.00571599
-0.00376816
-0.00535761
-0.00664817
-0.0073803
-0.00394672
-0.00526146
-0.0014918
-0.00100282
-0.00135015
-0.00397712
-0.00192225
-0.00328693
-0.00390024
-0.00298503
-0.00238631
-0.00379771
-0.00424008
-0.00516632
-0.0031814
-0.00264095
-0.00355732
-0.00044634
-0.00010217
-0.000148112
-0.000139355
-0.000119336
-0.000196573
-0.000225933
-0.000197038
-0.000126754
-0.000263945
-0.000317557
-0.000291857
-0.000182373
-0.000121796
-0.000343578
-0.000214199
-0.000214605
2.74404e-05
-0.000539538
-0.000393858
-0.000255227
-0.00121114
-0.00137537
-0.000791374
-0.000444956
-0.00337984
-0.00210732
-0.00131871
-0.00077331
-0.00418508
-0.00274014
-0.00144222
-0.000694904
-0.00311327
-0.00255062
-0.00188648
-0.000789319
-0.00101159
-0.00228694
-0.00173163
-0.00111979
-0.00121639
-0.00215604
-0.00182857
-0.00150331
-0.00149398
-0.00231879
-0.00181151
-0.00116519
-0.00113643
-0.00183554
-0.00202807
-0.00107966
-0.000897995
-0.0014585
-0.00248922
-0.00129278
-0.00139035
-0.00222604
-0.00281773
-0.00201519
-0.00130327
-0.00276527
-0.00337818
-0.00212695
-0.00265949
-0.00361915
-0.00362782
-0.00225543
-0.00191844
-0.00393221
-0.0040913
-0.0019117
-0.00281835
-0.00668123
-0.00579926
-0.00256926
-0.00795016
-0.00847623
-0.00556044
-0.003559
-0.00542665
-0.00521733
-0.00630914
-0.00339672
-0.00321794
-0.00337057
-0.00286144
-0.00275378
-0.0107804
-0.00545497
-0.00197336
-0.00170454
-0.0042258
0.000431159
0.00271337
0.00134253
0.00422445
-0.00152396
-0.00159587
-5.10461e-05
0.0043082
0.00244696
0.000167505
0.00021642
0.00162328
0.00299347
0.00420856
0.00211635
0.00830991
0.00795097
0.00589609
0.0024576
0.0108024
0.00989137
0.00689593
0.00389574
0.00505416
0.00662151
0.00493651
0.00422958
0.00298516
0.00404543
0.00386401
0.00107565
0.00192158
0.00307181
0.00259545
0.00199233
0.00134446
0.00175415
0.00151315
0.00104018
0.00124789
0.0014977
0.0017438
0.00192758
0.000750089
0.00155112
0.00179251
0.00163171
0.000503479
0.0013314
0.000214362
0.000641214
0.000767469
0.00127769
0.000617332
0.000125483
0.00112998
0.00193644
0.00158482
0.000312482
0.00244972
0.00337709
0.00194423
0.000447384
0.00519663
0.00357282
0.00202427
0.000688735
0.00684616
0.00454737
0.00218807
0.000778348
0.00405891
0.00318695
0.00168787
0.000813522
0.00116098
0.0016106
0.00130084
0.000500676
8.71787e-05
0.000291624
0.000311726
0.000168949
0.000198527
0.00016213
0.000214491
0.000103225
0.000207873
0.000253607
0.000237051
4.28863e-05
0.000122482
0.000149535
0.000103551
3.79049e-05
8.16343e-05
0.000101693
8.94393e-05
4.66117e-05
4.85678e-05
0.000119264
0.000100953
3.75219e-05
3.27367e-05
7.79886e-05
5.33027e-05
3.15163e-05
2.58381e-05
4.08239e-05
4.04314e-05
2.45107e-05
1.6195e-05
3.58598e-05
3.72485e-05
1.77123e-05
1.40115e-05
2.80131e-05
1.9744e-05
1.28366e-05
1.05709e-05
1.64748e-05
1.35419e-05
9.33548e-06
5.99423e-06
1.41518e-05
1.5025e-05
8.15059e-06
4.99574e-06
1.11066e-05
1.21721e-05
5.54395e-06
2.49551e-06
7.54256e-06
8.71209e-06
4.97599e-06
3.02575e-06
5.72277e-06
5.7585e-06
4.54932e-06
3.04264e-06
5.4084e-06
4.77886e-06
3.08386e-06
2.06651e-06
3.38296e-06
2.92924e-06
1.7091e-06
1.42205e-06
2.21726e-06
2.2782e-06
1.44625e-06
1.16008e-06
1.89181e-06
2.07064e-06
1.01522e-06
8.25017e-07
1.53014e-06
1.51465e-06
1.02518e-06
0.00736981
-0.000439054
-0.0010691
-0.000466043
-0.000480781
-4.04917e-05
2.19186e-06
-0.000154123
-0.000102654
-0.000251499
0.00442462
0.00208491
0.00210342
0.000826254
0.000511487
0.000185589
0.000572295
0.000387315
0.000305722
0.000285249
0.00225224
0.00040468
-4.61385e-05
0.00102631
0.000108071
0.000176004
-0.000683141
0.000571841
0.000719662
0.00107336
0.00645607
0.00102977
-0.00031537
0.0020257
0.00106031
0.000898236
0.000723865
0.000654895
0.000824569
0.00123424
0.00167196
0.000461867
-0.000564877
-4.84889e-05
-0.000300384
0.000215912
0.000427316
0.000416087
0.000939293
0.00158822
0.00144657
-0.00142453
0.00106005
1.70946e-05
0.000603862
0.000560783
0.000707938
0.000440532
0.000673204
0.0010691
0.00390426
-9.87917e-05
0.000758376
-0.000214635
-0.000514434
0.000202074
-0.000139578
0.000300979
0.000556594
0.000495269
-0.00470429
0.000868018
0.000385152
0.000230897
-8.97726e-05
-0.000659056
-0.000450637
-0.000152487
0.000347935
-0.000369624
-0.00339521
-0.0024585
-0.00180616
-0.00139163
0.000258731
0.000846609
-0.00027242
-0.000579105
-0.000239637
-0.000332821
0.000431604
-0.000826537
-0.000654351
-0.000913156
-0.000653032
0.000216708
-0.000377536
-0.000759338
-0.000133629
-0.00075325
-0.00546689
0.000773203
-0.00153956
-0.000511585
-0.000878573
-0.00114132
-0.000869124
-0.000520054
-0.000335052
-0.000964436
9.25545e-05
-0.00125696
-0.00107844
-0.00068643
-0.000356729
-0.00126003
-0.000456242
0.000127394
8.34761e-06
-0.00101508
-0.0026878
-4.10359e-05
-1.84875e-05
-7.47478e-05
0.000195902
-9.78032e-06
-0.000427971
-0.00016244
-3.65534e-05
-0.000168223
0.000467882
-0.000135388
-2.36795e-05
0.000121893
-0.00017911
-0.000198924
-3.45336e-05
-0.00012906
-0.000109218
-6.01319e-05
4.4674e-33
4.4674e-33
4.4674e-33
4.4674e-33
4.4674e-33
4.4674e-33
4.4674e-33
4.4674e-33
4.4674e-33
4.4674e-33
4.4674e-33
4.4674e-33
4.4674e-33
4.4674e-33
4.4674e-33
4.4674e-33
4.4674e-33
4.4674e-33
4.4674e-33
4.4674e-33
4.4674e-33
4.4674e-33
4.4674e-33
4.4674e-33
4.4674e-33
4.4674e-33
4.4674e-33
4.4674e-33
4.4674e-33
4.4674e-33
4.4674e-33
4.4674e-33
4.4674e-33
4.4674e-33
4.4674e-33
4.4674e-33
4.4674e-33
4.4674e-33
4.4674e-33
4.4674e-33
4.4674e-33
4.4674e-33
4.4674e-33
4.4674e-33
4.4674e-33
4.4674e-33
4.4674e-33
4.4674e-33
4.4674e-33
4.4674e-33
4.4674e-33
4.4674e-33
4.4674e-33
4.4674e-33
4.4674e-33
4.4674e-33
4.4674e-33
4.4674e-33
4.4674e-33
4.4674e-33
4.4674e-33
4.4674e-33
4.4674e-33
4.4674e-33
4.4674e-33
4.4674e-33
4.4674e-33
4.4674e-33
4.4674e-33
4.4674e-33
4.4674e-33
4.4674e-33
4.4674e-33
4.4674e-33
4.4674e-33
4.4674e-33
4.4674e-33
4.4674e-33
4.4674e-33
4.4674e-33
4.4674e-33
4.4674e-33
4.4674e-33
4.4674e-33
4.4674e-33
4.4674e-33
4.4674e-33
4.4674e-33
4.4674e-33
4.4674e-33
4.4674e-33
4.4674e-33
4.4674e-33
4.4674e-33
4.4674e-33
4.4674e-33
4.4674e-33
4.4674e-33
4.4674e-33
4.4674e-33
4.4674e-33
4.4674e-33
4.4674e-33
4.4674e-33
4.4674e-33
4.4674e-33
4.4674e-33
4.4674e-33
4.4674e-33
4.4674e-33
4.4674e-33
4.4674e-33
4.4674e-33
4.4674e-33
4.4674e-33
4.4674e-33
4.4674e-33
4.4674e-33
4.4674e-33
4.4674e-33
4.4674e-33
4.4674e-33
4.4674e-33
4.4674e-33
4.4674e-33
4.4674e-33
4.4674e-33
4.4674e-33
4.4674e-33
4.4674e-33
4.4674e-33
4.4674e-33
4.4674e-33
4.4674e-33
4.4674e-33
4.4674e-33
4.4674e-33
4.4674e-33
4.4674e-33
4.4674e-33
4.4674e-33
4.4674e-33
4.4674e-33
4.4674e-33
4.4674e-33
4.4674e-33
4.4674e-33
4.4674e-33
4.4674e-33
4.4674e-33
4.4674e-33
4.4674e-33
4.4674e-33
4.4674e-33
4.4674e-33
4.4674e-33
4.4674e-33
4.4674e-33
4.4674e-33
4.4674e-33
4.4674e-33
4.4674e-33
4.4674e-33
4.4674e-33
4.4674e-33
4.4674e-33
4.4674e-33
4.4674e-33
4.4674e-33
4.4674e-33
4.4674e-33
4.4674e-33
4.4674e-33
4.4674e-33
4.4674e-33
4.4674e-33
4.4674e-33
4.4674e-33
4.4674e-33
4.4674e-33
4.4674e-33
4.4674e-33
4.4674e-33
4.4674e-33
4.4674e-33
4.4674e-33
4.4674e-33
4.4674e-33
4.4674e-33
4.4674e-33
4.4674e-33
4.4674e-33
4.4674e-33
4.4674e-33
4.4674e-33
4.4674e-33
4.4674e-33
4.4674e-33
4.4674e-33
4.4674e-33
4.4674e-33
4.4674e-33
4.4674e-33
4.4674e-33
4.4674e-33
4.4674e-33
4.4674e-33
4.4674e-33
4.4674e-33
4.4674e-33
4.4674e-33
4.4674e-33
4.4674e-33
4.4674e-33
4.4674e-33
4.4674e-33
4.4674e-33
4.4674e-33
4.4674e-33
4.4674e-33
4.4674e-33
4.4674e-33
4.4674e-33
4.4674e-33
4.4674e-33
4.4674e-33
4.4674e-33
4.4674e-33
4.4674e-33
4.4674e-33
4.4674e-33
4.4674e-33
4.4674e-33
4.4674e-33
4.4674e-33
4.4674e-33
4.4674e-33
4.4674e-33
4.4674e-33
4.4674e-33
4.4674e-33
4.4674e-33
4.4674e-33
4.4674e-33
4.4674e-33
4.4674e-33
4.4674e-33
4.4674e-33
4.4674e-33
4.4674e-33
4.4674e-33
4.4674e-33
4.4674e-33
4.4674e-33
4.4674e-33
4.4674e-33
4.4674e-33
4.4674e-33
4.4674e-33
4.4674e-33
4.4674e-33
4.4674e-33
4.4674e-33
4.4674e-33
4.4674e-33
4.4674e-33
4.4674e-33
4.4674e-33
4.4674e-33
4.4674e-33
4.4674e-33
4.4674e-33
4.4674e-33
4.4674e-33
4.4674e-33
4.4674e-33
4.4674e-33
4.4674e-33
4.4674e-33
4.4674e-33
4.4674e-33
4.4674e-33
4.4674e-33
4.4674e-33
4.4674e-33
4.4674e-33
4.4674e-33
4.4674e-33
4.4674e-33
4.4674e-33
4.4674e-33
4.4674e-33
4.4674e-33
4.4674e-33
4.4674e-33
4.4674e-33
4.4674e-33
4.4674e-33
4.4674e-33
4.4674e-33
4.4674e-33
4.4674e-33
4.4674e-33
4.4674e-33
4.4674e-33
4.4674e-33
4.4674e-33
4.4674e-33
4.4674e-33
4.4674e-33
4.4674e-33
4.4674e-33
4.4674e-33
4.4674e-33
4.4674e-33
4.4674e-33
4.4674e-33
4.4674e-33
4.4674e-33
4.4674e-33
4.4674e-33
4.4674e-33
4.4674e-33
4.4674e-33
4.4674e-33
4.4674e-33
4.4674e-33
4.4674e-33
4.4674e-33
4.4674e-33
4.4674e-33
4.4674e-33
4.4674e-33
4.4674e-33
4.4674e-33
4.4674e-33
4.4674e-33
4.4674e-33
4.4674e-33
4.4674e-33
4.4674e-33
4.4674e-33
4.4674e-33
4.4674e-33
4.4674e-33
4.4674e-33
4.4674e-33
4.4674e-33
4.4674e-33
4.4674e-33
4.4674e-33
4.4674e-33
4.4674e-33
4.4674e-33
4.4674e-33
4.4674e-33
4.4674e-33
4.4674e-33
4.4674e-33
4.4674e-33
4.4674e-33
4.4674e-33
4.4674e-33
4.4674e-33
4.4674e-33
4.4674e-33
4.4674e-33
4.4674e-33
4.4674e-33
4.4674e-33
4.4674e-33
4.4674e-33
4.4674e-33
4.4674e-33
4.4674e-33
4.4674e-33
4.4674e-33
4.4674e-33
4.4674e-33
4.4674e-33
4.4674e-33
4.4674e-33
4.4674e-33
4.4674e-33
4.4674e-33
4.4674e-33
4.4674e-33
4.4674e-33
4.4674e-33
4.4674e-33
4.4674e-33
4.4674e-33
4.4674e-33
4.4674e-33
4.4674e-33
4.4674e-33
4.4674e-33
4.4674e-33
4.4674e-33
4.4674e-33
4.4674e-33
4.4674e-33
4.4674e-33
4.4674e-33
4.4674e-33
4.4674e-33
4.4674e-33
4.4674e-33
4.4674e-33
4.4674e-33
4.4674e-33
4.4674e-33
4.4674e-33
4.4674e-33
4.4674e-33
4.4674e-33
4.4674e-33
4.4674e-33
4.4674e-33
4.4674e-33
4.4674e-33
4.4674e-33
4.4674e-33
4.4674e-33
4.4674e-33
4.4674e-33
4.4674e-33
4.4674e-33
4.4674e-33
4.4674e-33
4.4674e-33
4.4674e-33
4.4674e-33
4.4674e-33
4.4674e-33
4.4674e-33
4.4674e-33
4.4674e-33
4.4674e-33
4.4674e-33
4.4674e-33
4.4674e-33
4.4674e-33
4.4674e-33
4.4674e-33
4.4674e-33
4.4674e-33
4.4674e-33
4.4674e-33
4.4674e-33
4.4674e-33
4.4674e-33
4.4674e-33
4.4674e-33
4.4674e-33
4.4674e-33
4.4674e-33
4.4674e-33
4.4674e-33
4.4674e-33
4.4674e-33
4.4674e-33
4.4674e-33
4.4674e-33
4.4674e-33
4.4674e-33
4.4674e-33
4.4674e-33
4.4674e-33
4.4674e-33
4.4674e-33
4.4674e-33
4.4674e-33
4.4674e-33
4.4674e-33
4.4674e-33
4.4674e-33
4.4674e-33
4.4674e-33
4.4674e-33
4.4674e-33
4.4674e-33
4.4674e-33
4.4674e-33
4.4674e-33
4.4674e-33
4.4674e-33
4.4674e-33
4.4674e-33
4.4674e-33
4.4674e-33
4.4674e-33
4.4674e-33
4.4674e-33
4.4674e-33
4.4674e-33
4.4674e-33
4.4674e-33
4.4674e-33
4.4674e-33
4.4674e-33
4.4674e-33
4.4674e-33
4.4674e-33
4.4674e-33
4.4674e-33
4.4674e-33
4.4674e-33
4.4674e-33
4.4674e-33
4.4674e-33
4.4674e-33
4.4674e-33
4.4674e-33
4.4674e-33
4.4674e-33
4.4674e-33
4.4674e-33
4.4674e-33
4.4674e-33
4.4674e-33
4.4674e-33
4.4674e-33
4.4674e-33
4.4674e-33
4.4674e-33
4.4674e-33
4.4674e-33
4.4674e-33
4.4674e-33
4.4674e-33
4.4674e-33
4.4674e-33
4.4674e-33
4.4674e-33
4.4674e-33
4.4674e-33
4.4674e-33
4.4674e-33
4.4674e-33
4.4674e-33
4.4674e-33
4.4674e-33
4.4674e-33
4.4674e-33
4.4674e-33
4.4674e-33
4.4674e-33
4.4674e-33
4.4674e-33
4.4674e-33
4.4674e-33
4.4674e-33
4.4674e-33
4.4674e-33
4.4674e-33
4.4674e-33
4.4674e-33
4.4674e-33
4.4674e-33
4.4674e-33
4.4674e-33
4.4674e-33
4.4674e-33
4.4674e-33
4.4674e-33
4.4674e-33
4.4674e-33
4.4674e-33
4.4674e-33
4.4674e-33
4.4674e-33
4.4674e-33
4.4674e-33
4.4674e-33
4.4674e-33
4.4674e-33
4.4674e-33
4.4674e-33
4.4674e-33
4.4674e-33
4.4674e-33
4.4674e-33
4.4674e-33
4.4674e-33
4.4674e-33
4.4674e-33
4.4674e-33
4.4674e-33
4.4674e-33
4.4674e-33
4.4674e-33
4.4674e-33
4.4674e-33
4.4674e-33
4.4674e-33
4.4674e-33
4.4674e-33
4.4674e-33
4.4674e-33
4.4674e-33
4.4674e-33
4.4674e-33
4.4674e-33
4.4674e-33
4.4674e-33
4.4674e-33
4.4674e-33
4.4674e-33
4.4674e-33
4.4674e-33
4.4674e-33
4.4674e-33
4.4674e-33
4.4674e-33
4.4674e-33
4.4674e-33
4.4674e-33
4.4674e-33
4.4674e-33
4.4674e-33
4.4674e-33
4.4674e-33
4.4674e-33
4.4674e-33
4.4674e-33
4.4674e-33
4.4674e-33
4.4674e-33
4.4674e-33
4.4674e-33
4.4674e-33
4.4674e-33
4.4674e-33
4.4674e-33
4.4674e-33
4.4674e-33
4.4674e-33
4.4674e-33
4.4674e-33
4.4674e-33
4.4674e-33
4.4674e-33
4.4674e-33
4.4674e-33
4.4674e-33
4.4674e-33
4.4674e-33
4.4674e-33
4.4674e-33
4.4674e-33
4.4674e-33
4.4674e-33
4.4674e-33
4.4674e-33
4.4674e-33
4.4674e-33
4.4674e-33
4.4674e-33
4.4674e-33
4.4674e-33
4.4674e-33
4.4674e-33
4.4674e-33
4.4674e-33
4.4674e-33
4.4674e-33
4.4674e-33
4.4674e-33
4.4674e-33
4.4674e-33
4.4674e-33
4.4674e-33
4.4674e-33
4.4674e-33
4.4674e-33
4.4674e-33
4.4674e-33
4.4674e-33
4.4674e-33
4.4674e-33
4.4674e-33
4.4674e-33
4.4674e-33
4.4674e-33
4.4674e-33
4.4674e-33
4.4674e-33
4.4674e-33
4.4674e-33
4.4674e-33
4.4674e-33
4.4674e-33
4.4674e-33
4.4674e-33
4.4674e-33
4.4674e-33
4.4674e-33
4.4674e-33
4.4674e-33
4.4674e-33
4.4674e-33
4.4674e-33
4.4674e-33
4.4674e-33
4.4674e-33
4.4674e-33
4.4674e-33
4.4674e-33
4.4674e-33
4.4674e-33
4.4674e-33
4.4674e-33
4.4674e-33
4.4674e-33
4.4674e-33
4.4674e-33
4.4674e-33
4.4674e-33
4.4674e-33
4.4674e-33
4.4674e-33
4.4674e-33
4.4674e-33
4.4674e-33
4.4674e-33
4.4674e-33
4.4674e-33
4.4674e-33
4.4674e-33
4.4674e-33
4.4674e-33
4.4674e-33
4.4674e-33
4.4674e-33
4.4674e-33
4.4674e-33
4.4674e-33
4.4674e-33
4.4674e-33
4.4674e-33
4.4674e-33
4.4674e-33
4.4674e-33
4.4674e-33
4.4674e-33
4.4674e-33
4.4674e-33
4.4674e-33
4.4674e-33
4.4674e-33
4.4674e-33
4.4674e-33
4.4674e-33
4.4674e-33
4.4674e-33
4.4674e-33
4.4674e-33
4.4674e-33
4.4674e-33
4.4674e-33
4.4674e-33
0.000159936
0.000254638
0.000136461
0.000156684
0.00014807
0.000202201
-0.000425126
-0.000279921
-0.000451514
-0.00028209
-0.000511125
-0.000379315
-0.000379073
-0.00034752
-0.000231638
2.294e-05
0.000145555
-0.000262192
0.0024298
0.00200622
0.00169168
0.00234034
0.00243096
0.00210099
0.0018398
0.00154399
3.8657e-06
2.53464e-06
3.2442e-06
2.25151e-06
6.00338e-06
4.76327e-06
4.38046e-06
3.90501e-06
3.40551e-06
2.59712e-06
-3.5656e-06
-2.11233e-06
-2.85388e-06
-2.51063e-06
-3.00961e-06
-1.84023e-06
-3.00225e-06
-3.69502e-06
-4.11911e-06
-5.78723e-06
-2.11808e-06
-3.04184e-06
-4.2049e-06
-4.0844e-06
0.00340706
0.00402364
0.00661107
0.00340547
0.00195231
0.00396931
0.00233664
0.0048713
0.00370304
0.00492248
0.000495652
0.00031168
0.000483671
0.000409969
0.000467322
0.000304493
0.0003682
0.000643354
-0.000297955
0.000424921
0.000547477
0.00713754
0.00600175
0.00402499
0.00795566
0.00662573
0.00651242
0.00583648
0.00409668
8.65211e-08
-1.00319e-06
-5.43002e-08
1.84855e-07
-7.06295e-07
4.57753e-07
9.34515e-08
1.09813e-06
-9.31486e-07
-1.49575e-06
-0.000139782
-9.36614e-05
-7.4188e-05
1.3648e-06
-2.47599e-06
-2.67145e-06
-2.67593e-06
-2.17155e-06
-2.35816e-06
-2.7428e-06
-2.94926e-06
-2.2302e-06
-2.00029e-06
-2.87523e-06
-3.58759e-06
-3.39081e-06
-2.80922e-06
-3.45292e-06
-2.56623e-06
-0.00101921
-0.000814548
-0.000715809
-0.000990233
-0.000804518
-0.000559986
-0.000566
-0.000735025
-0.000602023
-0.00071253
-0.00040742
-0.000418328
-0.00116651
-0.000256614
-0.000668957
-0.000460374
7.85282e-06
6.81768e-06
6.05572e-06
8.65434e-06
5.22087e-06
6.10764e-06
6.43627e-06
7.97859e-06
0.00010574
8.67205e-05
7.31507e-05
0.000103753
5.10041e-05
6.09145e-05
9.95602e-05
-9.25324e-05
0.000609952
0.00195097
0.000153238
0.000166441
0.000121196
-0.0016087
-0.00149496
-0.00175678
-0.000655777
-0.00160498
-0.00150763
-0.00146095
-0.00202239
-0.00180704
-0.00222146
-0.00189346
-0.00146608
-0.00211281
-0.0011535
-0.000572818
-0.000744002
-0.000175662
-0.00178076
-0.00166249
0.00274041
0.0038753
0.00289328
0.00213294
0.000725382
0.000896641
0.00072846
0.00274293
0.00183501
0.00406262
0.00306338
0.000776884
-0.000282909
-2.58844e-05
-0.000251616
-0.000305396
1.17273e-05
-0.000257009
-0.000195838
-0.000477205
-0.000321494
-0.000377211
-0.000432584
-0.000436263
-0.000540173
-2.82559e-05
1.32172e-05
6.12817e-05
3.56727e-05
2.00222e-07
-0.00108004
-0.00084836
-0.00084929
-0.00130849
2.87056e-05
-7.96845e-06
-7.53547e-07
-2.76814e-05
3.35136e-05
7.94377e-05
-1.10951e-05
-8.7339e-06
-9.13893e-06
-2.64042e-06
-1.42211e-05
-1.09634e-05
-4.32584e-06
0.00017362
0.000225135
0.000164656
0.000130966
0.000101544
0.000193121
0.000142204
0.000224625
0.000117118
0.000112581
0.000133486
0.000841846
0.00109901
0.000902261
0.0007482
0.000746407
0.000603338
0.00115967
0.000864669
0.000890961
5.22675e-06
3.66521e-06
5.52108e-06
6.76993e-06
3.93084e-06
5.44732e-06
5.49038e-06
4.23435e-06
7.93379e-06
6.00761e-06
3.63509e-06
-1.84035e-06
-3.69432e-06
-2.22543e-06
-1.81934e-06
-1.22043e-06
-1.05513e-06
-1.56013e-06
-1.07684e-06
-1.34634e-06
0.00344971
0.0034305
0.00308082
0.0033693
0.00260094
0.00260494
0.00188995
0.00287898
3.73297e-06
3.13728e-06
5.28928e-06
4.62087e-06
5.37955e-06
2.17039e-06
3.1379e-06
-3.88659e-07
-1.51392e-06
-8.19718e-08
-5.82013e-07
-1.24526e-06
5.74678e-07
1.74785e-06
3.43555e-06
2.59905e-06
4.95216e-06
4.45483e-06
4.19481e-06
3.69982e-06
2.12929e-06
-9.61711e-06
-6.76493e-06
-7.16324e-06
-9.30647e-06
-7.73682e-06
-7.39973e-06
-7.2636e-06
-8.0362e-06
-0.000920586
-7.10091e-06
-1.81139e-06
-7.85722e-06
-7.21149e-06
-7.50287e-06
-0.000811412
-0.000368138
-0.000478362
-0.000224387
7.39296e-06
8.96178e-06
-1.82766e-06
-1.18434e-06
-1.12784e-06
-2.20773e-06
0.000310913
0.000360707
0.000332563
0.000516795
0.00190921
0.00302131
0.00182444
0.00174727
0.00296363
0.00130616
0.0021901
0.00300344
0.00155257
0.00182114
0.000536165
-0.000615463
0.00204764
-0.00236701
-0.000262172
0.000711302
-0.00166202
0.00358235
0.000205719
-0.00381132
-0.00174666
-0.0016665
0.00157927
0.000944086
0.000647856
-0.000358474
-0.00205804
-0.0029031
-0.00244133
-0.00326892
-0.00285673
-0.00110291
-0.00442324
-0.000796116
0.000108695
9.13384e-05
0.000153628
0.000345227
-7.56334e-05
-0.00577046
-0.00500907
-0.00404812
0.000159152
0.000287318
3.83859e-06
3.74122e-06
4.21967e-06
3.74036e-06
3.24065e-06
3.89403e-06
3.8923e-06
5.03886e-06
-0.00389668
-0.00530413
-0.00453257
-0.00621246
-0.00505306
-0.00339967
-0.00254355
-0.00481256
-0.00271078
-0.000579572
-0.000781025
0.00161325
0.00124138
0.000916445
0.00115194
0.00133483
0.00105523
-0.00606529
-0.00567065
-0.002247
-0.00293621
0.00158594
0.000903373
0.00254103
0.00199276
0.0022584
0.00116105
0.00153297
0.000331292
0.000176758
0.000132893
0.000162809
8.1227e-05
0.000314256
0.00033136
0.000428591
0.000963514
0.000548782
0.000578813
0.000361048
0.000405942
-2.80543e-06
-4.07002e-06
-3.08985e-06
-3.11181e-06
-3.07715e-06
-3.15649e-06
-3.4335e-06
-1.40167e-06
-1.90661e-06
0.00778357
0.00382871
0.00494653
0.00128353
0.000122673
0.00122922
0.00140469
0.00144845
0.00220377
0.00148669
0.00172968
0.00137111
0.00206592
0.00168815
0.00115397
0.00527738
0.0106129
0.00454928
0.00588825
0.00368913
0.00576785
0.00617497
0.00450752
0.00726885
0.0022974
0.0022069
3.86918e-05
4.09532e-05
1.2205e-05
2.03065e-05
2.23405e-05
3.38236e-05
1.66968e-05
4.0691e-06
9.48244e-06
3.03125e-05
2.00014e-05
8.56587e-06
1.94041e-05
-1.09866e-05
-3.22522e-06
-1.0175e-06
-9.41757e-06
-2.35188e-06
-5.99813e-06
-1.56733e-05
-6.24662e-06
0.00182283
0.00280453
0.00226889
0.00143825
0.0022255
0.000860588
0.00115507
0.000209444
0.000133781
0.000118738
0.000254564
0.000146408
0.00139915
0.00247065
0.00197189
0.00277513
0.00168656
0.00212478
0.00224067
0.000227302
0.00247519
0.00265604
0.00206116
0.00029281
0.000218264
6.90517e-07
0.00108484
0.000773022
0.00160642
0.00106963
0.00157689
0.00213742
0.00280253
1.00499e-05
0.00307352
0.00241593
0.00168566
0.00326102
0.00123196
0.00257327
-3.55123e-06
-1.90966e-06
-2.62421e-06
-3.94592e-06
-4.21466e-06
-3.46577e-06
-2.49955e-06
-3.45207e-06
-4.59133e-06
-3.41753e-06
6.97482e-07
3.03133e-06
1.85996e-06
7.17635e-06
3.28673e-06
-0.00525512
-0.00148038
-0.00290539
-0.00496824
-0.00622951
-0.00437768
-0.00599245
-0.00606483
-0.00736937
-0.00788037
-0.00381315
-0.00390064
-0.00257451
-0.00192661
0.000474915
0.000527762
0.000382133
0.000289332
0.000362816
0.000280069
0.000434612
0.000395037
0.00287696
0.00296268
0.00350684
0.00313815
0.00321885
0.00219293
0.00259237
0.00410094
0.00381567
0.00326605
0.0033482
0.00307935
0.0028698
0.00166283
0.00277349
9.92078e-05
8.26061e-05
-0.000332366
-0.000147814
-7.05908e-05
-0.000406107
0.000274473
0.000351295
0.000600537
0.000583281
-0.000200148
0.0006861
0.00133495
0.000996534
0.00203124
0.00233195
0.00179305
0.00241348
0.00267658
0.00244017
0.000676567
0.00061494
0.000400739
0.000745033
0.00197514
0.00304451
0.00314114
0.0018588
0.00280005
0.00264485
0.000200812
-7.44381e-05
-0.000418381
5.85862e-06
-0.000747345
-0.000204257
-0.000575403
-0.00052497
-0.00078168
-0.00111251
0.00314467
0.00325734
0.00319903
0.00285556
0.00317099
0.00322214
0.00205604
0.00312738
0.00130548
0.000889492
0.000925265
0.00141892
0.00111
0.0011038
0.000662045
0.000687677
0.000543971
0.000672351
0.00108553
-0.000289442
-8.79969e-05
-0.000175768
-0.000436831
-0.000467778
-0.000228245
-0.00066921
-0.000741767
-0.000853675
-0.000448159
-8.41843e-05
0.0012611
0.00163469
0.00060823
0.000928024
0.00117357
0.000877695
0.000926509
-5.48464e-06
-5.8917e-06
-6.1058e-06
-5.04306e-06
0.00229643
-3.71164e-06
-2.05912e-06
-4.61062e-06
-0.0010413
-0.00126955
-0.00107273
0.0015439
0.000798051
0.00147374
0.00084375
-0.000895988
-0.00098625
-0.00114319
-5.28094e-06
-0.000181528
-0.000185314
-0.000497887
-0.000411765
-0.000446475
-0.000509625
-0.00080662
-0.00777251
-0.0074591
-4.96682e-05
4.89464e-05
2.88484e-05
9.21509e-05
4.62645e-05
-0.000187488
0.00690749
-3.87181e-07
3.42551e-07
4.46038e-07
-1.16657e-06
1.42292e-06
-1.7741e-06
9.61043e-07
1.00929e-06
1.28957e-07
-8.84616e-07
-3.65651e-07
-1.31421e-06
-7.27019e-07
-7.10868e-07
8.91347e-05
7.48316e-05
8.12621e-05
6.01428e-05
4.51339e-05
8.2642e-05
8.54157e-05
6.58172e-05
5.72777e-05
9.16487e-05
0.00122702
0.000280851
-0.00548
-0.00674418
-0.00572805
-0.00568833
0.000122001
0.00058571
-5.62053e-06
-2.01905e-06
1.80848e-06
2.87737e-06
2.07471e-06
3.08356e-06
2.52074e-06
3.30051e-06
-0.00375652
3.55724e-06
4.79787e-06
3.97755e-06
2.7822e-06
2.671e-06
2.33892e-06
3.69806e-06
2.59415e-06
3.91238e-06
-8.14989e-07
-1.93677e-06
2.1847e-06
-4.28656e-07
-3.11262e-06
-2.9537e-06
-1.96417e-07
8.53278e-06
2.70359e-06
1.58413e-06
-4.4321e-07
1.04778e-06
-7.58391e-07
1.10004e-07
7.44913e-07
-0.00350589
-0.00184828
-0.00326604
-0.00477866
2.80042e-06
0.00131447
0.00179516
0.00175536
0.00236812
0.00120552
5.94015e-05
7.12921e-05
3.34015e-05
5.08248e-05
-0.00154821
-0.001789
-0.00242996
-0.000997828
-0.00149395
-0.00106952
-0.00199033
-0.0015475
-0.000648337
-0.00180762
0.00403503
0.00260701
0.0027713
0.00503148
0.00248454
0.00234439
0.00287836
0.00331346
0.00170901
0.00198873
0.00263554
0.00172775
0.00193533
0.00147089
0.00177089
0.00192697
0.00102873
0.00113782
0.00106324
0.00170798
0.00126553
0.00185232
-0.0044098
-0.00510498
-0.00416566
-0.0028685
-0.0058548
-0.0043313
-0.00383798
-0.00438704
-0.00156479
-0.00142747
-0.00120093
-0.00107859
-0.00193289
-0.00108055
-0.000125347
-0.000254237
-0.000459223
-0.000424207
-0.000169593
-0.000337512
-0.00309176
-0.000583609
-0.000400182
-0.00212841
-0.00126029
-0.00140728
-0.00111073
-0.00418294
-0.00236408
-0.00400956
-0.00692935
-0.00726235
-0.00439784
-0.00191206
-0.00302272
-0.0019058
-1.76898e-05
-2.23329e-05
-2.57702e-05
-1.56295e-05
-1.49123e-05
-1.97902e-05
-1.0124e-05
0.000436229
7.24017e-05
4.48529e-06
0.000677328
0.000607099
8.37556e-06
1.0051e-05
1.05938e-05
1.32554e-05
1.11899e-05
6.94229e-06
-0.000783862
2.89692e-06
2.95048e-06
-0.000986024
-0.000388568
0.00013294
0.000180367
0.00019265
0.000148065
9.00858e-05
0.00026866
0.000120922
0.000282958
9.12017e-05
-0.000281329
-0.00116789
-0.00136199
-0.00225465
-3.6919e-06
-4.12406e-06
0.000183573
-0.00356813
-0.000724088
-0.00247366
-0.00132405
-0.000940541
-0.00133081
-0.00102657
-0.000920695
-0.000347355
-0.0014455
3.78253e-06
2.90508e-06
-0.000986721
-0.00104526
-0.00112185
-0.000591341
-0.00104344
1.33357e-05
8.30884e-06
1.73449e-05
1.64954e-05
9.74317e-06
1.05794e-05
1.14612e-05
1.37815e-05
-1.28489e-07
-1.33339e-06
-9.80159e-07
-1.97404e-06
-1.35456e-06
-4.46401e-06
-3.16355e-06
-2.80483e-06
-4.27861e-06
-3.78281e-06
-2.21076e-06
3.6072e-06
3.87081e-06
2.2239e-06
2.80349e-06
1.63017e-06
2.33141e-06
0.000261307
0.000454763
0.000229805
0.000297768
0.000241123
0.000175714
0.000461901
-0.00130095
-0.000923938
-0.0015017
4.14453e-06
-6.32495e-06
-0.000995419
-0.000121335
-0.00095789
-0.00153081
2.41043e-05
5.89652e-06
-4.71388e-06
8.96556e-06
-1.13417e-05
7.34364e-07
3.4824e-06
1.15411e-06
3.46667e-06
9.98195e-08
-5.89295e-05
-0.000556406
-0.000313233
-0.000195324
-1.09277e-06
0.000369551
0.00014687
0.000308629
8.94795e-05
-0.00062871
-0.00149723
-0.00206039
0.000538302
0.00149872
0.00270652
-0.000158818
0.00106924
-7.6442e-05
-8.58762e-05
0.00378451
0.00202217
0.00358853
7.88518e-07
2.52581e-06
8.25083e-06
1.76248e-06
-2.17324e-06
1.89158e-06
8.26802e-06
0.00114865
0.000879344
0.00100215
0.0010533
-4.14899e-06
-2.72032e-06
-2.1634e-06
0.000244401
0.000553467
0.000513511
0.000384897
0.000556406
0.000522432
0.000441847
0.00231343
0.0018673
0.00228265
0.000395555
0.00143802
0.00134121
0.00147581
0.000595528
0.0025034
0.00175184
7.42518e-05
4.03568e-05
6.77442e-05
6.40028e-05
4.39354e-05
2.60316e-05
2.59358e-05
7.48149e-05
4.75398e-05
0.00516285
0.00246689
0.00046508
-0.00156959
-0.000393234
-0.00088662
-0.000788392
-0.00265741
-0.000402236
0.00117077
0.000201204
0.000260275
0.000640753
-0.000115665
9.94631e-05
0.000111963
0.00033576
0.000110756
3.20108e-06
1.43081e-06
1.20579e-06
3.33594e-06
1.97571e-06
2.24222e-06
1.7388e-06
3.99151e-06
3.46628e-06
-2.27695e-05
-0.00078673
-0.000792421
0.000302206
4.17657e-06
5.84926e-06
-0.00867589
-0.00450318
-0.00233731
-0.0045507
-0.00470071
-0.00698705
-4.29017e-06
0.000573463
0.000627835
0.000815373
0.000864066
-4.07491e-05
0.000282637
0.00069019
0.000679156
-0.000972671
0.000588887
0.000726154
0.00034601
0.000228055
0.000815777
0.00113238
0.000699524
0.000652072
3.75182e-07
3.31601e-07
1.24364e-07
7.60389e-07
-0.000231504
-1.00386e-05
-1.40292e-05
0.000149279
-0.0058886
-0.0061733
-0.0089794
-0.00239892
-0.0039516
-0.00435539
0.000801541
0.000289362
0.000658781
-2.9288e-05
7.57642e-05
6.4648e-05
-5.69613e-06
-1.05925e-06
-2.56007e-06
-3.83388e-06
-3.14722e-06
-1.09761e-06
-5.67453e-06
-0.0011138
-4.41447e-06
0.00102439
0.00160353
0.000736477
0.00141475
0.00262814
0.00219158
0.00169023
0.00440953
0.00407452
0.00332603
-0.00181889
-0.00230295
-1.76422e-05
0.00069409
-0.000308351
-0.000885382
0.000555097
-8.84008e-05
0.00037841
-1.36773e-06
0.000859712
0.000693048
0.000953073
0.00185492
0.00255652
0.00159488
-0.00106988
-2.74225e-06
-2.44359e-06
0.000499056
0.000192434
0.000337093
0.000242726
0.000137608
0.00485691
0.00561084
0.00333801
0.00191664
0.00599459
0.00266932
0.00513088
0.00140725
0.00203361
-9.13959e-07
0.000736181
0.00104831
0.00175863
0.000981921
5.50441e-06
0.00205174
0.00241742
0.0024448
0.0015636
-0.00343463
-0.00399402
-0.00259975
-0.00268676
-0.00399198
-0.00258263
-0.00326086
-0.00508603
-0.00281247
-0.00465996
-0.00366842
0.00205051
0.000846723
-0.00133452
-0.000425289
-0.000247393
-0.000609609
-0.00187659
0.000519264
-2.15693e-05
-0.00172575
-0.000227234
-0.000369774
-0.000426082
-0.000139548
-0.000620858
-1.69543e-06
-2.48866e-06
-2.08972e-06
-2.12827e-06
-0.000219695
0.000195018
-0.000623906
0.000230101
-0.000915282
-0.00075014
-0.000338795
1.59484e-05
2.98722e-06
-4.52261e-06
-2.96455e-06
-4.41076e-06
-1.85123e-06
-4.98855e-06
-0.00181134
-0.00156528
-0.00126718
-0.00138594
-0.00315353
-0.00401738
-0.00377979
-0.00306652
-0.00341652
-0.00146584
-0.00158196
-0.00453163
0.000555385
0.000640908
0.000719532
-1.0119e-06
-2.7068e-06
2.14675e-05
3.92466e-05
3.47804e-05
6.69063e-05
9.15509e-05
-9.24674e-05
3.02898e-05
0.000185597
6.69068e-05
0.000304402
9.97479e-05
0.000406199
9.225e-05
-0.000143643
0.000107247
0.000308342
0.000202772
8.7613e-05
9.60533e-07
0.00298983
0.00179556
0.00165905
0.00290841
0.00243025
0.00128657
-9.11749e-05
-0.000722275
-0.000662873
0.00347235
0.0046599
-0.0016723
-0.00132862
-0.000889115
-0.00198754
-0.00271461
-0.0032348
-0.00172837
-0.00321137
-0.00534214
-0.00442206
-0.00210347
-0.00609807
-0.00307383
0.00164692
-0.00339175
-5.42468e-07
-7.05863e-07
-8.87499e-08
-6.23962e-07
-8.97269e-07
-1.32314e-06
0.000117048
0.000262037
0.000240003
-0.000151192
-0.000103125
5.08282e-05
-3.88321e-05
-0.000209871
-0.0032612
1.26117e-05
1.83226e-05
1.59965e-05
1.15643e-05
1.64875e-05
1.17933e-05
7.88995e-06
5.94066e-06
9.66914e-06
1.18142e-05
6.00791e-06
8.74731e-06
9.77859e-06
0.000699697
-0.00158238
0.00336235
-0.00159423
-0.000947645
-0.00211964
-0.00424052
-0.000875617
-0.00134224
-0.00619484
2.65335e-06
2.41247e-06
2.37938e-06
2.51012e-06
2.03664e-06
2.13109e-06
3.05229e-05
4.26039e-05
2.40333e-05
2.90824e-05
1.51776e-05
4.45969e-05
2.57583e-05
1.95774e-05
0.00286033
0.00203792
0.00266658
0.00229929
0.0031512
0.00213955
0.00329877
0.00232608
0.00321593
0.00306348
0.00250368
0.0015262
0.000662995
0.00396748
0.00381808
0.00281492
0.00260372
0.00215449
0.00295119
0.00188903
0.00374336
-0.00169097
-0.00139663
-0.00128149
-0.00140873
2.19721e-05
8.20478e-06
9.30424e-06
-0.000161291
5.61951e-06
0.000319138
-0.00114045
8.10743e-06
1.82449e-05
-0.00428913
-0.000944823
-0.000990811
-0.000609383
-0.000483899
-0.00113754
-0.00771073
-0.006657
-0.00728814
-0.000597278
-0.000543834
-0.000922103
1.77213e-05
1.67082e-05
1.70458e-05
2.40926e-05
9.48773e-06
1.50273e-05
2.96939e-05
-0.00434074
2.18104e-05
-0.00265622
1.57709e-05
1.20314e-05
-0.00434904
-0.00364381
1.55087e-05
-0.00121278
-0.00154921
-0.00115653
-0.0013548
-0.000829808
-0.000894278
-0.00172021
-0.000910028
1.45617e-06
-0.00352097
-0.006692
-0.00282872
-4.92681e-08
-0.00305619
0.000471401
0.000298595
0.00109372
-0.000511478
-0.000597846
-0.000675587
-0.000875427
-0.000727065
-2.17675e-06
-2.06427e-06
-1.07389e-06
-1.62398e-06
4.33427e-06
9.94073e-07
-4.2495e-06
-8.96861e-06
-4.38736e-06
-7.96684e-05
-1.63367e-06
-0.00280511
-2.67114e-06
-2.62602e-06
-2.86801e-06
-2.27888e-06
-2.58106e-06
0.00107713
0.000675951
-0.000318008
0.000346092
0.00118805
-5.08772e-07
-0.00273365
-0.00229668
0.0013702
0.00125214
0.00121409
0.000780038
0.00110077
0.00165657
0.000945732
0.000724098
0.00151897
-8.3807e-05
0.00213151
0.00177016
0.00163185
0.00106185
6.14658e-05
-0.000159129
-0.000371334
-0.000232873
-0.000278747
0.00220822
0.00213313
0.00197259
0.00261431
0.00144797
0.00160351
0.00165912
-0.00179965
-0.00145634
0.000994484
-0.000663839
-0.00224833
-0.00319161
-0.00333193
-0.00204839
0.00375201
0.00693964
4.55455e-05
6.45274e-05
4.03853e-05
2.60656e-05
4.71907e-05
3.31551e-05
-0.00198061
2.57241e-05
3.33394e-05
4.67995e-05
6.39265e-05
8.46476e-05
4.12111e-06
6.04332e-06
0.000237294
0.000353582
1.40625e-05
2.19823e-05
1.3667e-05
0.000380305
0.000335495
0.000319306
1.18364e-05
2.1032e-05
0.000353875
6.33043e-06
0.00388359
0.00419403
1.55363e-06
4.74795e-07
-0.00097363
-0.0012336
-0.00133958
-0.000888962
-0.000273069
-0.000870886
-0.000582745
-0.0010738
0.000297063
9.54243e-07
2.3777e-05
0.00328063
2.4438e-05
1.66105e-05
2.50052e-05
8.6067e-06
2.2103e-05
-0.000104454
0.00228392
0.00156184
0.0016651
0.00169974
0.00136092
0.00087234
0.00114408
0.00171503
0.000560699
0.000540946
0.000638044
3.72284e-05
0.000569746
0.000740767
-1.34621e-06
-2.22148e-06
-2.18954e-06
-1.43762e-06
-0.0017331
-0.00119863
-0.00213407
-0.00140137
-0.00180089
-0.00108877
-0.000419529
-0.000905397
-0.00141976
0.00551592
0.0032905
-0.000341888
-0.00137587
-0.00100493
-0.00125381
-0.000916472
-0.000766387
0.000696105
0.000473394
0.000714137
0.000435844
0.000409467
0.000221985
0.000342132
-0.00013149
-0.000336988
-0.000423615
-0.000714111
0.000204253
0.000447206
-0.000828154
-0.000941426
-8.8293e-08
4.92196e-07
2.0809e-06
-1.06302e-07
2.22504e-06
4.04127e-06
3.73091e-06
0.00228609
0.00145787
0.00146534
0.00108141
0.000444801
0.000297334
0.000380915
0.000192584
0.000296483
-0.00213591
2.31715e-05
6.40036e-06
3.268e-06
2.20718e-06
0.00302599
0.000249629
0.00196077
0.00164035
0.00040097
0.000477331
0.000248729
0.00136772
2.82131e-06
5.01319e-06
2.55955e-06
3.34754e-06
0.00166454
0.000919977
0.00100007
0.000478996
-0.000166151
-0.000257597
-0.000764769
-0.000419522
3.3112e-05
-0.000525396
0.000408522
-0.000280366
0.00199422
0.000947538
0.00308261
0.00414366
0.00286287
0.00350689
0.00322531
7.18255e-06
5.65252e-06
1.15547e-05
0.00099468
0.000908632
0.00190155
6.24115e-05
4.11915e-05
0.000520237
0.000428127
0.000525034
0.0014245
0.000243413
0.00101642
-2.24662e-06
-2.0392e-06
-2.29719e-06
-2.84401e-06
0.000592053
0.000423421
0.000527324
0.000411302
-0.00169737
-0.00258905
0.000504087
0.00283046
0.000725544
0.000892038
-1.18178e-06
-3.7027e-06
-2.76975e-06
-1.71045e-06
0.00406338
0.00341997
-8.2951e-06
-1.77955e-05
0.00198335
0.00294373
0.00206946
-2.21102e-06
-0.000559836
0.00224526
0.001938
-1.47186e-06
-1.30248e-06
-1.35346e-06
-1.80162e-06
-0.000819449
-0.000149718
-0.000722974
-0.000494019
-0.00129891
-0.000609272
-0.000951991
6.63673e-05
0.000253196
8.72788e-05
0.00396488
0.00172457
-6.79456e-06
0.000518251
0.0016652
0.000991761
-0.000999924
-0.00107189
-0.000582717
-0.000276488
-0.00484386
-0.00265044
0.00111724
0.000685542
0.000388885
0.000668031
0.000414178
0.000155576
0.000481175
0.000295213
0.000681398
-0.000735132
-0.00151937
-0.00127262
-0.000832824
-0.000919236
-0.00153373
-0.00127765
-5.23092e-06
-5.04815e-06
-4.97889e-06
-5.62895e-06
-0.000759484
-0.00119922
-0.000317459
-0.000428202
-0.00734083
0.000577683
-0.000597096
0.000186381
0.00127255
-0.0070312
7.62965e-05
-1.41791e-06
-1.85956e-07
-1.03104e-06
5.40445e-06
2.31786e-06
5.6861e-06
4.48992e-06
-0.00396137
8.35913e-06
1.06722e-05
-2.26633e-06
-1.67969e-06
-2.37926e-06
-1.96749e-06
-1.14831e-06
-1.99153e-06
3.3668e-06
3.9203e-06
0.000483608
0.000266885
0.000369848
-1.96208e-06
-1.30422e-06
0.000992995
0.000942573
0.0016301
0.00130486
0.00201786
0.000944697
-2.52418e-06
3.45396e-05
3.40731e-05
4.20837e-05
0.000122475
4.4005e-06
5.93213e-06
1.16069e-05
4.97811e-05
7.2007e-05
0.000378313
0.00162441
0.00209046
-0.000719469
0.00272201
0.000261929
0.000662564
-0.000250959
-6.2713e-07
2.09597e-06
1.48649e-06
6.21551e-05
0.000370818
0.00196427
2.33757e-06
0.00113015
0.00347808
0.00321275
0.00219068
0.00338613
0.000622466
0.000130779
0.00034157
0.00100675
0.00042299
-0.00199148
-0.00237594
-0.0021074
-0.00171464
-0.00309391
-0.00147342
-0.00182386
-0.00307204
-0.00346037
3.20975e-05
0.000366027
0.000280243
0.000495214
0.000890301
0.000338747
0.000582009
0.00259456
0.00222935
0.00148666
0.00308206
0.000402151
0.000512175
0.0013326
4.97995e-05
0.00150433
0.00184747
6.09251e-05
6.95191e-05
8.47712e-05
3.67588e-05
0.00293143
0.00204946
4.76367e-05
-8.72896e-07
2.83478e-05
3.52001e-05
1.67934e-05
-1.92297e-06
0.00135669
0.00173011
-0.00759247
-0.00583097
8.951e-05
-0.000378229
4.81083e-05
0.000139565
0.00128748
0.00199463
0.00188016
0.00164921
0.0017829
0.00143185
0.00123555
0.00135183
0.00192859
-0.00102509
-0.000862788
0.000284121
0.00173335
0.00138287
0.00169219
0.00187868
0.00175825
0.0005044
0.0022802
0.00182641
-0.00306592
0.0016705
0.00185126
0.00147406
-0.00387827
0.00139086
-0.00236259
-0.00118997
-0.00109459
-7.82307e-05
-2.00691e-06
2.38965e-06
7.65734e-07
0.000238947
0.00147167
0.00150902
0.00169723
0.000871619
0.00176203
0.00183797
0.00162668
0.00138555
0.00283275
0.00201786
0.00125356
-0.0028828
-0.00263291
-0.00122004
-0.00413931
-0.00844161
-0.00508886
-0.0051012
0.00174868
0.000627009
0.000640741
0.000401391
-0.000330597
-9.75348e-05
-0.00118533
-0.00194117
3.30522e-06
1.64043e-06
-0.00124084
-0.000872594
-0.000410871
-0.000975698
-0.000429265
-0.000635016
-0.000431311
-3.25127e-05
0.00150668
0.00166298
0.000468507
0.000306472
0.00143277
0.00158755
0.00177026
0.0016382
0.00119841
0.0014781
-0.00116066
-0.00087601
-0.000333156
-0.00280358
-0.00536574
-0.000180324
-0.00394389
-0.00248388
0.000163697
0.000134653
0.00016919
0.000270977
0.000196197
3.703e-06
-2.51163e-06
-0.00280866
-0.0030261
-0.000121467
-0.000134513
-8.58082e-05
-0.00010349
-0.000196439
-0.000173778
-0.000311608
1.97222e-06
-0.00189444
1.65307e-05
3.41896e-05
2.75016e-05
4.3895e-05
2.08768e-05
-0.000140281
-1.74964e-05
-5.01418e-06
-8.51387e-06
8.44685e-06
0.00396611
0.000168257
-0.000801466
-1.83357e-06
-0.000294305
-5.7752e-06
0.00060457
-0.000849828
0.000506641
0.000367837
2.9663e-05
-0.00027926
0.00031802
-0.000263162
-0.000210055
7.70365e-05
-2.28385e-06
4.15301e-06
4.59574e-06
0.000848462
0.00124278
-0.00203605
-1.66006e-06
-1.65516e-06
6.21991e-06
0.000182866
0.000614472
0.00141894
0.00325519
3.33979e-05
2.46369e-05
3.09365e-05
0.00228118
0.00254298
0.00297126
0.00282149
0.00175505
0.00179101
0.00117889
0.000535006
0.000409084
-0.000942977
-0.000153107
-0.0031747
-0.00137468
-0.000347012
7.06994e-07
0.00184151
-0.00296028
0.00044413
0.000275468
0.000412171
0.000552935
-2.26889e-06
-1.28802e-06
-0.0011727
1.38496e-05
1.17928e-05
6.41093e-06
-0.000248566
-0.000222163
-0.00635445
-0.00803846
4.08421e-05
5.3612e-05
7.44885e-05
4.86288e-05
-0.00273729
0.00139221
0.00199527
0.00116999
0.00198735
-0.00222449
-0.00168537
0.0025973
-0.00203662
0.00133768
0.00145383
0.001456
0.00082296
0.00216972
0.000951731
0.000502899
0.000884539
0.00196512
0.00050102
0.000360325
-0.00518621
-0.0007956
-0.000405257
-0.000519252
-0.000912632
-0.000125861
-0.00133307
-7.97687e-05
-0.00459719
-1.57245e-06
-0.00307781
0.00185523
0.00359263
-0.00450715
-0.00160736
3.08507e-06
0.00204781
0.0016492
0.00271813
0.000966009
-0.000331416
0.000636012
0.000417882
0.00178637
0.000126425
7.87629e-05
6.59268e-06
-1.27454e-06
-8.46574e-07
-3.28579e-06
-0.000453053
7.27688e-06
1.22402e-05
-7.63691e-06
0.000203264
0.000157784
0.000136183
-5.78812e-05
0.00146608
6.41428e-07
0.000493018
0.000571341
0.000705139
0.000557238
0.00086896
0.00620036
0.00246255
-0.00102375
0.00356621
-0.00087372
-0.0011766
0.00178187
-0.00230939
-0.0011611
-0.00135041
0.000688563
0.000688388
0.00071807
5.96788e-06
8.89411e-05
0.00157601
0.00191478
-0.000555891
0.000755462
-0.00223253
0.000418033
-0.00348209
-0.000412082
-0.000216569
1.85718e-06
0.00288979
-0.000682743
-0.000800886
-0.0016556
-0.00177475
-0.00163246
0.00296074
0.00846707
0.000760109
0.000176378
0.000544363
0.000685161
-0.00172777
-0.00173127
-4.47353e-06
-0.00157998
-0.000415132
-0.000956132
-5.38709e-06
-0.00213739
0.0012432
-1.36524e-06
-9.34665e-07
-0.0027819
-0.00737005
1.75203e-06
0.00012066
4.77034e-05
-2.95085e-07
-3.78469e-06
1.40377e-06
1.41108e-06
-0.00140987
-0.00322946
-2.28814e-06
-2.5143e-06
-2.76174e-06
-2.84446e-06
-1.64136e-06
-0.00284438
0.000131347
0.00171272
0.00134293
-0.00188759
0.000617226
-0.000329348
-0.000207211
0.000177662
0.00012411
0.000139311
0.000219495
0.000193468
0.000197195
0.000130921
-0.00101345
-2.02566e-06
0.000657532
0.000624011
0.000272439
-8.18467e-07
-2.49415e-06
-2.18266e-06
0.00313417
-0.0040306
-9.57536e-07
-1.50898e-06
1.29957e-06
7.67025e-09
-1.14724e-06
0.00203046
0.00271521
-0.00258472
-0.00755392
3.35469e-06
-0.0020183
-0.000811983
1.88753e-06
6.72045e-07
1.87877e-06
0.000486477
0.000742968
0.000256451
0.000197345
1.42408e-06
-0.000264153
-1.60554e-05
0.000312155
-0.000632014
-0.000930794
6.75929e-07
4.97668e-06
0.000815624
5.87658e-05
0.000169287
-7.05187e-05
-0.00183599
-0.0022644
0.000173831
-0.000392626
-0.000250777
-0.000713896
-0.00382124
-1.20361e-06
-1.56665e-06
-1.40233e-06
-8.87037e-07
0.0029135
0.00159833
-0.000655371
-2.01547e-06
0.000507312
0.00111587
-0.000658361
9.406e-05
3.13768e-05
0.000684106
0.00104074
0.000315899
0.000268043
0.000797291
0.00183846
0.00312051
4.09457e-07
0.00598074
0.00161299
0.000389684
1.87819e-05
5.93227e-05
0.000904394
-7.63423e-07
-3.66606e-06
0.000846361
-0.000276475
-0.00226689
0.000665592
9.69919e-05
-0.0013615
-0.000355045
-0.000788062
-0.00130167
-0.00379192
-0.00503406
-0.00110169
0.00026284
-0.00327674
3.42775e-05
0.00273714
9.87716e-05
-0.00197105
-0.00432329
-0.00185368
-0.00388264
0.000237092
0.000259878
0.00103102
0.000617516
-0.000114139
0.000151256
-5.91606e-05
4.96531e-05
0.00153318
0.00178819
0.00146782
0.00350536
0.000260582
-0.000196529
-0.000366103
0.00040174
0.000456574
0.000539768
0.000378149
-0.000126926
-0.000160523
2.25686e-06
0.00913659
0.00682304
0.00720074
-0.0010948
-0.000982106
-0.00169376
2.70346e-06
3.47239e-06
-0.000381428
0.0011218
-0.000571668
-7.74404e-07
7.01961e-06
6.77584e-06
8.6038e-06
7.82905e-06
0.000117831
5.23318e-05
7.86349e-07
9.42252e-07
7.34911e-05
0.000152738
9.9126e-05
-2.99361e-06
-0.000912404
-0.00123356
3.06969e-06
5.65334e-06
0.000163912
3.02827e-05
-0.000801443
-0.00143678
-0.00167671
-0.000846644
0.000139975
0.00226146
0.000285241
-1.71573e-05
7.19967e-06
-0.000178204
-0.000238725
-0.000156929
-0.000171404
-0.000829221
-0.00169643
-0.000867278
-0.00352939
-0.00405852
-0.00122304
-0.00234912
0.00017933
0.00100437
0.00121388
-0.000934924
-0.0015945
0.000938043
0.000954811
-0.000503584
-0.00169131
0.000322253
0.000316961
-0.000577402
0.000378774
0.000455853
0.000266489
2.76883e-05
0.000713608
0.000518918
1.11781e-05
-0.0010759
0.00156283
-0.000784386
-0.000540242
0.00088606
0.00139481
8.85098e-07
3.07203e-06
-0.000797056
0.00123261
0.00145584
7.79826e-06
-0.00160865
0.00106586
3.28368e-06
0.00168309
2.20995e-05
0.0011067
8.79662e-05
0.000185536
-0.000222096
-1.76886e-08
-7.00124e-07
-1.13291e-06
-0.000542499
-0.00106937
1.31016e-06
0.00191776
2.51534e-06
1.51789e-06
0.00348903
0.003072
-0.00329658
-5.38956e-07
5.4479e-07
-0.000184689
0.000797683
0.000394822
0.00121929
0.000593401
-3.97398e-05
0.000186962
-0.000129275
2.78314e-05
0.000706054
0.00191427
-3.38832e-05
0.00121792
0.00107315
0.000854902
0.00353194
0.00360493
-7.31805e-05
2.01216e-07
1.73403e-06
1.1638e-06
2.61154e-06
-0.000732916
-0.000593115
-0.000640825
0.00184927
2.11648e-06
0.000511947
1.85743e-06
4.24375e-06
0.00094075
0.00130825
0.00199672
0.00263647
-1.50298e-06
3.86342e-06
0.000119556
-0.000510749
-0.00111138
0.000434209
0.000110235
-0.000670523
0.000330106
1.91168e-06
0.00054013
0.00135154
0.00183418
0.00126725
0.000545584
-3.85749e-06
0.000285297
-0.0011111
0.000401704
0.00154462
0.00174701
-0.00106398
-0.000773093
-0.00155305
-0.00234075
-0.00032215
5.26441e-06
2.47605e-06
-0.000446406
-0.00031153
0.00186191
0.000777459
0.0016442
0.000551926
0.000305116
0.00122764
0.00135888
-0.00110703
-8.18203e-06
-1.70525e-06
-0.00256563
-0.00231569
-0.00707371
-0.00222159
-0.00156135
-0.0012012
-0.00172847
-3.69572e-06
-1.59565e-06
0.000452688
0.000766661
0.000828432
-2.6525e-06
0.0010897
0.000464847
0.00175594
0.000535192
0.000479717
0.000894422
0.0012498
0.00187034
0.000426041
0.00185703
0.000898068
0.00764924
0.00217305
0.00109233
0.000233993
-0.000610926
0.00030373
-0.00232734
-0.000529017
-0.00263633
-0.0060481
-0.00232187
0.00100316
0.000318782
-0.00431597
0.000630765
-0.0093922
-0.00223099
0.000327356
-0.0151093
-0.00954233
0.000274891
-0.00238507
-0.00721004
-0.00430801
-0.00172615
0.000947254
0.000718622
-0.000377277
-0.00049848
0.00435533
0.00510273
0.00372125
0.0013708
-0.000346634
0.00506341
-0.00608605
0.000628285
-0.0018385
-0.000558693
-0.000121286
0.000135137
-0.00423169
0.000286593
-0.00129715
-0.000885897
0.00726053
0.00622381
-0.000209967
0.00121542
-0.000108386
-0.000793651
-0.00037369
0.0143658
0.00276489
1.79606e-05
-0.0004208
-0.00407973
0.00124459
-0.00159554
0.000411659
-0.00164921
-0.00776836
-0.000141047
-0.000293024
8.89249e-06
0.000408809
-0.00214651
-0.00522371
-0.00255753
-0.00344268
-0.000181135
0.000252875
0.000730505
0.0044291
-0.00173674
-0.00510002
-0.00837709
-0.00687906
-0.00422944
-0.00554265
0.00143106
0.00266371
-0.00382981
-0.000562477
0.00250184
-0.000648471

SCALARS S_xz double 1
LOOKUP_TABLE  table10
1.05148e-153
1.05148e-153
0.0498229
0.0415927
1.05148e-153
1.05148e-153
1.05148e-153
0.000618238
1.05148e-153
1.05148e-153
1.05148e-153
-0.0081895
1.05148e-153
1.05148e-153
1.05148e-153
1.05148e-153
1.05148e-153
-0.00837954
-0.0192491
1.05148e-153
1.05148e-153
0.0019403
1.05148e-153
1.05148e-153
1.05148e-153
0.00833458
1.05148e-153
1.05148e-153
2.20894e-06
1.56544e-07
-7.22839e-07
2.14117e-06
2.16189e-07
2.086e-07
3.19462e-05
1.93565e-05
-0.00016845
8.80407e-05
3.1791e-05
-6.58226e-05
4.14137e-07
1.33376e-07
0.0085542
0.00818156
1.05148e-153
1.05148e-153
1.05148e-153
1.05148e-153
1.05148e-153
1.05148e-153
1.05148e-153
1.05148e-153
1.05148e-153
1.05148e-153
1.05148e-153
1.05148e-153
1.05148e-153
1.05148e-153
1.05148e-153
1.05148e-153
1.05148e-153
1.05148e-153
1.05148e-153
1.05148e-153
1.05148e-153
1.05148e-153
0.0520206
0.0556505
0.0573132
0.0603927
0.0652275
0.0727411
0.0798802
0.0808692
0.071855
0.0681173
0.0680162
0.0613029
0.0585232
0.0542126
1.05148e-153
1.05148e-153
1.05148e-153
1.05148e-153
1.05148e-153
1.05148e-153
1.05148e-153
1.05148e-153
1.05148e-153
1.05148e-153
1.05148e-153
1.05148e-153
1.05148e-153
1.05148e-153
1.05148e-153
1.05148e-153
1.05148e-153
1.05148e-153
1.05148e-153
1.05148e-153
1.05148e-153
1.05148e-153
1.05148e-153
1.05148e-153
1.05148e-153
1.05148e-153
1.05148e-153
1.05148e-153
1.05148e-153
1.05148e-153
1.05148e-153
1.05148e-153
1.05148e-153
1.05148e-153
1.05148e-153
0.0463195
0.0442689
0.027792
0.0469167
0.0410697
0.036732
1.05148e-153
1.05148e-153
1.05148e-153
1.05148e-153
1.05148e-153
1.05148e-153
1.05148e-153
1.05148e-153
1.05148e-153
1.05148e-153
1.05148e-153
1.05148e-153
1.05148e-153
1.05148e-153
1.05148e-153
1.05148e-153
1.05148e-153
1.05148e-153
1.05148e-153
1.05148e-153
1.05148e-153
1.05148e-153
1.05148e-153
1.05148e-153
1.05148e-153
1.05148e-153
1.05148e-153
1.05148e-153
1.05148e-153
1.05148e-153
1.05148e-153
1.05148e-153
1.05148e-153
1.05148e-153
1.05148e-153
1.05148e-153
1.05148e-153
1.05148e-153
1.05148e-153
1.05148e-153
1.05148e-153
1.05148e-153
1.05148e-153
1.05148e-153
1.05148e-153
1.05148e-153
1.05148e-153
1.05148e-153
1.05148e-153
1.05148e-153
-0.0173696
-0.0257033
-0.00654157
-0.00828291
-0.0104144
-0.00698811
-0.00887862
-0.00356881
-0.000249804
-0.00588293
-0.00532679
-0.00416995
-0.0192738
-0.0161626
1.05148e-153
1.05148e-153
1.05148e-153
1.05148e-153
1.05148e-153
1.05148e-153
1.05148e-153
1.05148e-153
1.05148e-153
1.05148e-153
1.05148e-153
1.05148e-153
1.05148e-153
1.05148e-153
1.05148e-153
1.05148e-153
1.05148e-153
1.05148e-153
1.05148e-153
1.05148e-153
1.05148e-153
1.05148e-153
1.05148e-153
1.05148e-153
1.05148e-153
1.05148e-153
1.05148e-153
1.05148e-153
1.05148e-153
1.05148e-153
1.05148e-153
1.05148e-153
1.05148e-153
1.05148e-153
1.05148e-153
1.05148e-153
1.05148e-153
1.05148e-153
1.05148e-153
1.05148e-153
1.05148e-153
1.05148e-153
1.05148e-153
1.05148e-153
1.05148e-153
-0.00266963
-0.00173021
-0.00251564
-0.00152762
-0.00189565
-0.0018815
-0.00188808
-0.00265421
-0.00199967
-0.00317856
-0.0050671
-0.00617755
-0.00598863
-0.00952042
1.05148e-153
1.05148e-153
1.05148e-153
1.05148e-153
1.05148e-153
1.05148e-153
1.05148e-153
1.05148e-153
1.05148e-153
1.05148e-153
1.05148e-153
1.05148e-153
1.05148e-153
1.05148e-153
1.05148e-153
1.05148e-153
1.05148e-153
1.05148e-153
1.05148e-153
1.05148e-153
1.05148e-153
1.05148e-153
1.05148e-153
1.05148e-153
1.05148e-153
1.05148e-153
1.05148e-153
1.05148e-153
1.05148e-153
1.05148e-153
1.05148e-153
1.05148e-153
1.05148e-153
1.05148e-153
1.05148e-153
1.05148e-153
1.05148e-153
1.05148e-153
1.05148e-153
1.05148e-153
1.05148e-153
1.05148e-153
1.05148e-153
1.05148e-153
1.05148e-153
1.05148e-153
1.05148e-153
1.05148e-153
1.05148e-153
-0.00101283
-0.00322187
-0.00437859
-0.00940686
-0.00456907
-0.00180216
1.05148e-153
1.05148e-153
1.05148e-153
1.05148e-153
1.05148e-153
1.05148e-153
1.05148e-153
1.05148e-153
1.05148e-153
1.05148e-153
1.05148e-153
1.05148e-153
1.05148e-153
1.05148e-153
1.05148e-153
1.05148e-153
1.05148e-153
1.05148e-153
1.05148e-153
1.05148e-153
1.05148e-153
1.05148e-153
1.05148e-153
1.05148e-153
1.05148e-153
1.05148e-153
1.05148e-153
1.05148e-153
1.05148e-153
1.05148e-153
1.05148e-153
1.05148e-153
1.05148e-153
1.05148e-153
1.05148e-153
0.00454931
0.00207728
-0.000315418
-0.00118554
-0.000980342
-0.00142463
-0.00188666
-0.00163674
-0.00125635
-0.00122586
-0.000639975
-0.00128998
-0.000634375
0.000569504
1.05148e-153
1.05148e-153
1.05148e-153
1.05148e-153
1.05148e-153
1.05148e-153
1.05148e-153
1.05148e-153
1.05148e-153
1.05148e-153
1.05148e-153
1.05148e-153
1.05148e-153
1.05148e-153
1.05148e-153
1.05148e-153
1.05148e-153
1.05148e-153
1.05148e-153
1.05148e-153
1.05148e-153
1.05148e-153
2.08216e-06
1.6705e-06
1.1817e-06
9.20355e-07
4.44951e-07
1.07322e-07
-3.34564e-08
-1.28592e-07
-5.38029e-07
-4.89957e-07
-4.36906e-07
-3.16574e-08
3.45178e-07
3.64456e-07
8.98536e-07
1.23225e-06
1.57371e-06
1.63086e-06
3.09813e-06
5.00558e-06
5.06636e-06
3.3844e-06
9.68814e-07
1.69996e-06
1.546e-06
6.75684e-07
5.41279e-07
1.78534e-06
2.36792e-06
2.23026e-06
1.59605e-06
8.09624e-07
1.34829e-07
2.69889e-07
7.54601e-07
5.15089e-06
2.61968e-05
3.5122e-05
3.19513e-05
2.4478e-05
2.13658e-06
2.98351e-07
9.83604e-08
1.7126e-07
6.72919e-05
0.000102312
0.000153214
0.000266235
0.000273408
-4.68832e-05
-0.00014173
-0.000176463
-9.08348e-05
0.000283407
0.000182586
9.81387e-05
7.20177e-05
3.5301e-05
-0.000147208
-0.000191874
-8.13408e-05
1.58133e-05
6.28522e-05
7.9114e-05
2.28417e-05
-4.54818e-05
-4.64267e-05
-5.83356e-05
-0.000100441
-3.24684e-05
-6.20513e-05
6.30413e-05
0.000184312
0.00140249
0.00511607
0.00948972
0.00203557
0.000555746
0.000245862
0.000162232
0.000161577
0.000131011
0.000110918
9.03477e-05
6.9981e-05
4.92713e-05
3.60429e-05
2.62567e-05
1.72994e-05
1.53776e-05
1.00007e-05
7.6551e-06
5.6025e-06
3.17155e-06
1.2081e-06
2.08479e-07
-2.23746e-07
-5.43916e-07
-6.38251e-07
-6.83561e-07
-3.90894e-07
-2.5711e-07
-4.55439e-07
-4.37835e-07
1.94709e-07
1.10264e-07
-1.68688e-07
-1.79553e-07
-3.1272e-07
-5.34146e-07
-6.25677e-07
-7.3828e-07
-7.78962e-07
1.14601e-06
1.82221e-06
1.73711e-06
7.04934e-07
8.38846e-07
2.07867e-06
4.04995e-06
4.855e-06
7.63293e-06
1.12841e-05
1.66887e-05
2.35109e-05
3.38069e-05
4.96527e-05
7.09001e-05
0.000103805
0.000145978
0.000212693
0.000301803
0.000409825
0.000544792
0.000607408
0.000481197
-9.15e-05
-0.00141716
-0.00309914
-0.00555354
-0.00781299
-0.0100182
-0.0119108
-0.0123863
-0.0125051
-0.0126009
-0.0103681
-0.0105367
-0.0117063
-0.00662059
-0.00636983
0.000502224
0.012114
0.0223178
0.0259195
0.0175557
0.00466367
0.00632868
0.00723485
0.00591059
0.00709961
0.00816165
0.00894005
0.00847912
0.00756902
0.00754087
0.00819001
0.00822642
0.00685945
0.0090383
0.0144498
0.0244462
0.0249057
0.0158343
0.00916006
0.00409077
0.00210442
0.000411172
-0.00121537
-0.0020285
-0.00332237
-0.00436088
-0.00556932
-0.00646943
-0.004163
-0.00337523
-0.0026493
-0.00147566
-0.0004712
0.000363102
0.000649384
0.000451657
0.000347052
0.00010175
0.0519073
0.0425817
0.0290881
0.0170786
0.0156182
0.0287943
0.0365365
0.0403037
-0.0305573
-0.00657002
-0.0026762
-0.00297608
-0.00389257
-0.00408065
-0.00435538
-0.0051311
-0.00596792
-0.00878588
-0.0237393
-0.0138131
-0.012322
-0.0118364
-0.0116468
-0.0108247
-0.0113202
-0.0143847
-0.0204413
-0.037954
1.05148e-153
1.05148e-153
1.05148e-153
1.05148e-153
1.05148e-153
1.05148e-153
1.05148e-153
1.05148e-153
1.05148e-153
1.05148e-153
1.05148e-153
1.05148e-153
1.05148e-153
1.05148e-153
1.05148e-153
1.05148e-153
1.05148e-153
1.05148e-153
1.05148e-153
1.05148e-153
1.05148e-153
1.05148e-153
1.05148e-153
1.05148e-153
1.05148e-153
1.05148e-153
1.05148e-153
1.05148e-153
1.05148e-153
1.05148e-153
1.05148e-153
1.05148e-153
1.05148e-153
1.05148e-153
1.05148e-153
1.05148e-153
1.05148e-153
1.05148e-153
1.05148e-153
1.05148e-153
1.05148e-153
1.05148e-153
1.05148e-153
1.05148e-153
1.05148e-153
1.05148e-153
1.05148e-153
1.05148e-153
1.05148e-153
1.05148e-153
1.05148e-153
1.05148e-153
1.05148e-153
1.05148e-153
1.05148e-153
1.05148e-153
1.05148e-153
1.05148e-153
1.05148e-153
1.05148e-153
1.05148e-153
1.05148e-153
1.05148e-153
1.05148e-153
1.05148e-153
1.05148e-153
1.05148e-153
1.05148e-153
1.05148e-153
1.05148e-153
1.05148e-153
1.05148e-153
1.05148e-153
1.05148e-153
1.05148e-153
1.05148e-153
1.05148e-153
1.05148e-153
1.05148e-153
1.05148e-153
1.05148e-153
1.05148e-153
1.05148e-153
1.05148e-153
1.05148e-153
1.05148e-153
1.05148e-153
1.05148e-153
1.05148e-153
1.05148e-153
1.05148e-153
1.05148e-153
1.05148e-153
1.05148e-153
1.05148e-153
1.05148e-153
1.05148e-153
1.05148e-153
1.05148e-153
1.05148e-153
1.05148e-153
1.05148e-153
1.05148e-153
1.05148e-153
1.05148e-153
1.05148e-153
1.05148e-153
1.05148e-153
1.05148e-153
1.05148e-153
1.05148e-153
1.05148e-153
1.05148e-153
1.05148e-153
1.05148e-153
1.05148e-153
1.05148e-153
1.05148e-153
1.05148e-153
1.05148e-153
1.05148e-153
1.05148e-153
1.05148e-153
1.05148e-153
1.05148e-153
1.05148e-153
1.05148e-153
1.05148e-153
1.05148e-153
1.05148e-153
1.05148e-153
1.05148e-153
1.05148e-153
1.05148e-153
1.05148e-153
1.05148e-153
1.05148e-153
1.05148e-153
1.05148e-153
1.05148e-153
1.05148e-153
1.05148e-153
1.05148e-153
1.05148e-153
1.05148e-153
1.05148e-153
1.05148e-153
1.05148e-153
1.05148e-153
1.05148e-153
1.05148e-153
1.05148e-153
1.05148e-153
1.05148e-153
1.05148e-153
1.05148e-153
1.05148e-153
1.05148e-153
1.05148e-153
1.05148e-153
1.05148e-153
1.05148e-153
1.05148e-153
1.05148e-153
1.05148e-153
1.05148e-153
1.05148e-153
1.05148e-153
1.05148e-153
1.05148e-153
1.05148e-153
1.05148e-153
1.05148e-153
1.05148e-153
1.05148e-153
1.05148e-153
1.05148e-153
1.05148e-153
1.05148e-153
1.05148e-153
1.05148e-153
1.05148e-153
1.05148e-153
1.05148e-153
1.05148e-153
1.05148e-153
1.05148e-153
1.05148e-153
1.05148e-153
1.05148e-153
1.05148e-153
1.05148e-153
1.05148e-153
1.05148e-153
1.05148e-153
1.05148e-153
1.05148e-153
1.05148e-153
1.05148e-153
1.05148e-153
1.05148e-153
1.05148e-153
1.05148e-153
1.05148e-153
1.05148e-153
1.05148e-153
1.05148e-153
1.05148e-153
1.05148e-153
1.05148e-153
1.05148e-153
1.05148e-153
1.05148e-153
1.05148e-153
1.05148e-153
1.05148e-153
1.05148e-153
1.05148e-153
1.05148e-153
1.05148e-153
1.05148e-153
1.05148e-153
1.05148e-153
1.05148e-153
1.05148e-153
1.05148e-153
1.05148e-153
1.05148e-153
1.05148e-153
1.05148e-153
1.05148e-153
1.05148e-153
1.05148e-153
1.05148e-153
1.05148e-153
1.05148e-153
1.05148e-153
1.05148e-153
1.05148e-153
1.05148e-153
1.05148e-153
1.05148e-153
1.05148e-153
1.05148e-153
1.05148e-153
1.05148e-153
1.05148e-153
1.05148e-153
1.05148e-153
1.05148e-153
1.05148e-153
1.05148e-153
1.05148e-153
1.05148e-153
1.05148e-153
1.05148e-153
1.05148e-153
1.05148e-153
1.05148e-153
1.05148e-153
1.05148e-153
1.05148e-153
1.05148e-153
1.05148e-153
1.05148e-153
1.05148e-153
1.05148e-153
1.05148e-153
1.05148e-153
1.05148e-153
1.05148e-153
1.05148e-153
1.05148e-153
1.05148e-153
1.05148e-153
1.05148e-153
1.05148e-153
1.05148e-153
1.05148e-153
1.05148e-153
1.05148e-153
1.05148e-153
1.05148e-153
1.05148e-153
1.05148e-153
1.05148e-153
1.05148e-153
1.05148e-153
1.05148e-153
1.05148e-153
1.05148e-153
1.05148e-153
1.05148e-153
1.05148e-153
0.0178031
0.0243171
0.0272047
0.0322527
0.0312415
0.0340444
0.0388166
0.0398824
0.0407974
0.0323973
0.0352888
0.0346848
0.0304918
0.0311958
0.0105241
0.00133901
0.00321331
0.00343728
0.00552345
0.00458257
0.00624867
0.01268
0.00573827
0.00399817
0.00222902
0.0043224
0.0117527
0.0137192
0.0385192
0.0330306
0.0329374
0.0370787
0.0395183
0.0424901
0.0476738
0.048634
0.0469264
0.039689
0.0391181
0.0372469
0.033373
0.0256922
1.05148e-153
1.05148e-153
1.05148e-153
1.05148e-153
1.05148e-153
1.05148e-153
1.05148e-153
1.05148e-153
1.05148e-153
1.05148e-153
1.05148e-153
1.05148e-153
1.05148e-153
1.05148e-153
1.05148e-153
1.05148e-153
1.05148e-153
1.05148e-153
1.05148e-153
1.05148e-153
1.05148e-153
1.05148e-153
1.05148e-153
1.05148e-153
1.05148e-153
1.05148e-153
1.05148e-153
1.05148e-153
1.05148e-153
1.05148e-153
1.05148e-153
1.05148e-153
1.05148e-153
1.05148e-153
1.05148e-153
1.05148e-153
1.05148e-153
1.05148e-153
1.05148e-153
1.05148e-153
1.05148e-153
1.05148e-153
1.05148e-153
1.05148e-153
1.05148e-153
1.05148e-153
1.05148e-153
1.05148e-153
1.05148e-153
1.05148e-153
1.05148e-153
1.05148e-153
1.05148e-153
1.05148e-153
1.05148e-153
1.05148e-153
1.05148e-153
1.05148e-153
1.05148e-153
1.05148e-153
1.05148e-153
1.05148e-153
1.05148e-153
1.05148e-153
1.05148e-153
1.05148e-153
1.05148e-153
1.05148e-153
1.05148e-153
1.05148e-153
1.05148e-153
1.05148e-153
1.05148e-153
1.05148e-153
1.05148e-153
1.05148e-153
1.05148e-153
1.05148e-153
1.05148e-153
1.05148e-153
1.05148e-153
1.05148e-153
1.05148e-153
1.05148e-153
1.05148e-153
1.05148e-153
1.05148e-153
1.05148e-153
1.05148e-153
1.05148e-153
1.05148e-153
1.05148e-153
1.05148e-153
1.05148e-153
1.05148e-153
1.05148e-153
1.05148e-153
1.05148e-153
1.05148e-153
1.05148e-153
1.05148e-153
1.05148e-153
1.05148e-153
1.05148e-153
1.05148e-153
1.05148e-153
1.05148e-153
1.05148e-153
1.05148e-153
1.05148e-153
1.05148e-153
1.05148e-153
1.05148e-153
1.05148e-153
1.05148e-153
1.05148e-153
1.05148e-153
1.05148e-153
1.05148e-153
1.05148e-153
1.05148e-153
1.05148e-153
1.05148e-153
1.05148e-153
1.05148e-153
1.05148e-153
1.05148e-153
1.05148e-153
1.05148e-153
1.05148e-153
1.05148e-153
1.05148e-153
1.05148e-153
1.05148e-153
1.05148e-153
1.05148e-153
1.05148e-153
1.05148e-153
1.05148e-153
1.05148e-153
1.05148e-153
1.05148e-153
1.05148e-153
1.05148e-153
1.05148e-153
1.05148e-153
1.05148e-153
1.05148e-153
1.05148e-153
1.05148e-153
1.05148e-153
1.05148e-153
1.05148e-153
1.05148e-153
1.05148e-153
1.05148e-153
1.05148e-153
1.05148e-153
1.05148e-153
1.05148e-153
1.05148e-153
1.05148e-153
1.05148e-153
1.05148e-153
1.05148e-153
1.05148e-153
1.05148e-153
1.05148e-153
1.05148e-153
1.05148e-153
1.05148e-153
1.05148e-153
1.05148e-153
1.05148e-153
1.05148e-153
1.05148e-153
1.05148e-153
1.05148e-153
1.05148e-153
1.05148e-153
1.05148e-153
1.05148e-153
1.05148e-153
1.05148e-153
1.05148e-153
1.05148e-153
1.05148e-153
1.05148e-153
1.05148e-153
1.05148e-153
1.05148e-153
1.05148e-153
1.05148e-153
1.05148e-153
1.05148e-153
1.05148e-153
1.05148e-153
1.05148e-153
1.05148e-153
1.05148e-153
1.05148e-153
1.05148e-153
1.05148e-153
1.05148e-153
1.05148e-153
1.05148e-153
1.05148e-153
1.05148e-153
1.05148e-153
1.05148e-153
1.05148e-153
1.05148e-153
1.05148e-153
1.05148e-153
1.05148e-153
1.05148e-153
1.05148e-153
1.05148e-153
1.05148e-153
1.05148e-153
1.05148e-153
1.05148e-153
1.05148e-153
1.05148e-153
1.05148e-153
1.05148e-153
1.05148e-153
1.05148e-153
1.05148e-153
1.05148e-153
1.05148e-153
1.05148e-153
1.05148e-153
1.05148e-153
1.05148e-153
1.05148e-153
1.05148e-153
1.05148e-153
1.05148e-153
1.05148e-153
1.05148e-153
1.05148e-153
1.05148e-153
1.05148e-153
1.05148e-153
1.05148e-153
1.05148e-153
1.05148e-153
1.05148e-153
1.05148e-153
1.05148e-153
1.05148e-153
1.05148e-153
1.05148e-153
1.05148e-153
1.05148e-153
1.05148e-153
1.05148e-153
1.05148e-153
1.05148e-153
1.05148e-153
1.05148e-153
1.05148e-153
1.05148e-153
1.05148e-153
1.05148e-153
1.05148e-153
1.05148e-153
1.05148e-153
1.05148e-153
1.05148e-153
1.05148e-153
1.05148e-153
1.05148e-153
1.05148e-153
1.05148e-153
1.05148e-153
1.05148e-153
1.05148e-153
1.05148e-153
1.05148e-153
1.05148e-153
1.05148e-153
1.05148e-153
1.05148e-153
1.05148e-153
1.05148e-153
1.05148e-153
1.05148e-153
1.05148e-153
1.05148e-153
1.05148e-153
1.05148e-153
1.05148e-153
1.05148e-153
1.05148e-153
1.05148e-153
1.05148e-153
1.05148e-153
1.05148e-153
1.05148e-153
1.05148e-153
1.05148e-153
1.05148e-153
1.05148e-153
1.05148e-153
1.05148e-153
1.05148e-153
1.05148e-153
1.05148e-153
1.05148e-153
1.05148e-153
1.05148e-153
1.05148e-153
1.05148e-153
1.05148e-153
1.05148e-153
1.05148e-153
1.05148e-153
1.05148e-153
1.05148e-153
1.05148e-153
1.05148e-153
1.05148e-153
1.05148e-153
1.05148e-153
1.05148e-153
1.05148e-153
1.05148e-153
1.05148e-153
1.05148e-153
1.05148e-153
1.05148e-153
1.05148e-153
1.05148e-153
1.05148e-153
1.05148e-153
1.05148e-153
1.05148e-153
1.05148e-153
1.05148e-153
1.05148e-153
1.05148e-153
1.05148e-153
1.05148e-153
1.05148e-153
1.05148e-153
1.05148e-153
1.05148e-153
1.05148e-153
1.05148e-153
1.05148e-153
1.05148e-153
1.05148e-153
1.05148e-153
1.05148e-153
1.05148e-153
1.05148e-153
1.05148e-153
1.05148e-153
1.05148e-153
1.05148e-153
1.05148e-153
1.05148e-153
1.05148e-153
1.05148e-153
1.05148e-153
1.05148e-153
1.05148e-153
1.05148e-153
1.05148e-153
1.05148e-153
1.05148e-153
1.05148e-153
1.05148e-153
1.05148e-153
1.05148e-153
1.05148e-153
1.05148e-153
1.05148e-153
1.05148e-153
1.05148e-153
1.05148e-153
1.05148e-153
1.05148e-153
1.05148e-153
1.05148e-153
1.05148e-153
1.05148e-153
1.05148e-153
1.05148e-153
1.05148e-153
1.05148e-153
1.05148e-153
1.05148e-153
1.05148e-153
1.05148e-153
1.05148e-153
1.05148e-153
1.05148e-153
1.05148e-153
1.05148e-153
1.05148e-153
1.05148e-153
1.05148e-153
1.05148e-153
1.05148e-153
1.05148e-153
1.05148e-153
1.05148e-153
1.05148e-153
1.05148e-153
1.05148e-153
1.05148e-153
1.05148e-153
1.05148e-153
1.05148e-153
1.05148e-153
1.05148e-153
1.05148e-153
1.05148e-153
1.05148e-153
1.05148e-153
1.05148e-153
1.05148e-153
1.05148e-153
1.05148e-153
1.05148e-153
1.05148e-153
1.05148e-153
1.05148e-153
1.05148e-153
1.05148e-153
1.05148e-153
1.05148e-153
1.05148e-153
1.05148e-153
1.05148e-153
1.05148e-153
1.05148e-153
1.05148e-153
1.05148e-153
1.05148e-153
1.05148e-153
1.05148e-153
1.05148e-153
1.05148e-153
1.05148e-153
1.05148e-153
1.05148e-153
1.05148e-153
1.05148e-153
1.05148e-153
1.05148e-153
1.05148e-153
1.05148e-153
1.05148e-153
1.05148e-153
1.05148e-153
1.05148e-153
1.05148e-153
1.05148e-153
1.05148e-153
1.05148e-153
1.05148e-153
1.05148e-153
1.05148e-153
1.05148e-153
1.05148e-153
1.05148e-153
1.05148e-153
1.05148e-153
1.05148e-153
1.05148e-153
1.05148e-153
1.05148e-153
1.05148e-153
1.05148e-153
1.05148e-153
1.05148e-153
1.05148e-153
1.05148e-153
1.05148e-153
1.05148e-153
1.05148e-153
1.05148e-153
1.05148e-153
1.05148e-153
1.05148e-153
1.05148e-153
1.05148e-153
1.05148e-153
1.05148e-153
1.05148e-153
1.05148e-153
1.05148e-153
1.05148e-153
1.05148e-153
1.05148e-153
1.05148e-153
1.05148e-153
1.05148e-153
1.05148e-153
1.05148e-153
1.05148e-153
1.05148e-153
1.05148e-153
1.05148e-153
1.05148e-153
1.05148e-153
1.05148e-153
1.05148e-153
1.05148e-153
1.05148e-153
1.05148e-153
1.05148e-153
1.05148e-153
1.05148e-153
1.05148e-153
1.05148e-153
1.05148e-153
1.05148e-153
1.05148e-153
1.05148e-153
1.05148e-153
1.05148e-153
1.05148e-153
1.05148e-153
1.05148e-153
1.05148e-153
1.05148e-153
1.05148e-153
1.05148e-153
1.05148e-153
1.05148e-153
1.05148e-153
1.05148e-153
1.05148e-153
1.05148e-153
1.05148e-153
1.05148e-153
1.05148e-153
1.05148e-153
1.05148e-153
1.05148e-153
1.05148e-153
1.05148e-153
1.05148e-153
1.05148e-153
1.05148e-153
1.05148e-153
1.05148e-153
1.05148e-153
1.05148e-153
1.05148e-153
1.05148e-153
1.05148e-153
1.05148e-153
1.05148e-153
1.05148e-153
1.05148e-153
1.05148e-153
1.05148e-153
1.05148e-153
1.05148e-153
1.05148e-153
1.05148e-153
1.05148e-153
1.05148e-153
1.05148e-153
1.05148e-153
1.05148e-153
1.05148e-153
1.05148e-153
1.05148e-153
1.05148e-153
1.05148e-153
1.05148e-153
1.05148e-153
1.05148e-153
1.05148e-153
1.05148e-153
1.05148e-153
1.05148e-153
1.05148e-153
1.05148e-153
1.05148e-153
1.05148e-153
1.05148e-153
1.05148e-153
1.05148e-153
1.05148e-153
1.05148e-153
1.05148e-153
1.05148e-153
1.05148e-153
1.05148e-153
1.05148e-153
1.05148e-153
1.05148e-153
1.05148e-153
1.05148e-153
1.05148e-153
1.05148e-153
1.05148e-153
1.05148e-153
1.05148e-153
1.05148e-153
1.05148e-153
1.05148e-153
1.05148e-153
1.05148e-153
1.05148e-153
1.05148e-153
1.05148e-153
1.05148e-153
1.05148e-153
1.05148e-153
1.05148e-153
1.05148e-153
1.05148e-153
1.05148e-153
1.05148e-153
1.05148e-153
1.05148e-153
1.05148e-153
1.05148e-153
1.05148e-153
1.05148e-153
1.05148e-153
1.05148e-153
1.05148e-153
1.05148e-153
1.05148e-153
1.05148e-153
1.05148e-153
1.05148e-153
1.05148e-153
1.05148e-153
1.05148e-153
-0.00330372
-0.00461566
-0.0050109
-0.00433206
-0.00369162
-0.00313629
-0.00308293
-0.0032917
-0.00390656
-0.00477871
-0.00533177
-0.00659946
-0.00718999
-0.00634962
-0.00232041
-0.00200717
-0.00262073
-0.00233355
-0.00235683
-0.00221579
-0.00210513
-0.00236604
-0.00241988
-0.00238921
-0.00275698
-0.00306483
-0.00288247
-0.00386945
-0.00081924
-0.000384082
-0.000734739
-0.000603896
-0.00110266
-0.00184731
-0.00196495
-0.00178189
-0.000778486
0.000166869
0.000346002
0.000747241
0.00150528
-0.00212119
2.76224e-06
2.34982e-06
1.96454e-06
1.5459e-06
9.17364e-07
3.66022e-07
1.72378e-07
4.4435e-06
3.98321e-06
3.07353e-06
2.14701e-06
1.31404e-06
7.11691e-07
3.66726e-08
4.34913e-06
3.82708e-06
2.90625e-06
2.19186e-06
1.3286e-06
6.17293e-07
-6.14621e-08
2.88368e-06
2.23922e-06
1.73256e-06
1.39789e-06
8.30261e-07
2.2602e-07
-3.10547e-08
1.78197e-06
2.61764e-06
2.65541e-06
1.57905e-06
2.68191e-06
4.34475e-06
4.2374e-06
2.61115e-06
3.10101e-06
4.95154e-06
4.89279e-06
3.17422e-06
5.94286e-07
1.14879e-06
2.25978e-06
5.97021e-06
1.48267e-06
2.27163e-06
4.34559e-06
8.76503e-06
1.08852e-06
1.36956e-06
3.97714e-06
8.56325e-06
4.95435e-07
4.54506e-07
1.00206e-06
4.45081e-06
7.45232e-05
0.00010078
0.000100434
0.000136211
5.01576e-05
9.90626e-05
0.000126209
0.000111836
9.0393e-05
-5.97407e-05
8.57497e-05
0.000120122
9.84496e-05
8.08614e-05
4.44347e-07
5.01482e-05
8.60786e-05
0.00012173
0.00010769
4.5403e-05
-6.82987e-05
-0.000114579
-0.000102732
-6.07881e-06
-0.000155305
-0.000184101
-0.00013344
-3.82304e-05
-0.00018146
-0.000129601
-0.000174814
-0.000101514
-0.000137554
-0.000149322
-0.00011754
-0.000121146
1.12925e-06
1.56711e-06
1.60833e-06
1.53326e-06
4.86556e-07
1.20948e-06
3.45196e-07
-2.5021e-08
9.72793e-07
2.18542e-08
-6.22022e-05
0.000302673
-8.8397e-05
2.20609e-05
-3.29274e-08
-2.64599e-07
-9.70379e-05
-0.000150197
0.00257583
0.00131253
0.000571139
0.00502601
0.00511652
0.00644039
-2.23351e-07
-2.05438e-07
-3.18392e-07
-7.42374e-08
3.10855e-07
-5.66587e-08
3.29931e-05
6.14356e-06
4.67679e-05
0.000107414
1.75542e-05
0.000142872
0.000106475
0.000423747
0.000148239
9.15398e-05
7.2659e-05
3.2609e-05
2.36719e-05
8.07075e-06
5.81637e-06
2.7608e-06
0.00018136
1.10614e-05
3.85954e-06
9.00306e-06
0.000977676
-0.000219674
-6.16596e-05
2.98007e-05
1.59957e-05
2.18855e-05
-7.13019e-05
1.19199e-05
1.36286e-07
2.72947e-07
8.73896e-07
1.08312e-06
-1.92347e-07
1.80521e-06
0.00115057
0.00261678
0.00510151
-3.75943e-07
-0.000259316
-5.88871e-07
-0.00050796
0.00259252
9.93187e-07
1.37002e-06
0.00134775
-6.55304e-07
1.51733e-09
-0.00045093
-5.80173e-07
3.74656e-05
-0.000524313
-0.000229897
-1.84918e-07
-0.000139162
5.87463e-06
-0.000145124
2.99158e-06
7.58002e-06
5.52593e-05
3.11457e-05
1.54641e-05
5.92701e-05
1.63824e-06
7.99578e-05
0.000102703
3.84124e-05
9.06342e-05
0.000240582
8.75244e-06
5.07566e-06
1.44147e-06
3.68149e-06
1.84894e-06
-2.58607e-05
-0.000130191
-0.000384353
-3.89142e-05
-7.14886e-05
-0.000111551
-1.42645e-05
1.93566e-07
6.41222e-07
-3.97618e-07
1.04963e-06
-0.000283792
1.84245e-06
-5.86658e-07
0.000379476
-0.00055161
-1.37676e-06
-0.00050307
-1.36089e-06
-0.000504754
-0.000496029
-1.24992e-06
0.000783493
-1.97265e-07
-4.109e-05
0.00158879
3.13408e-06
-6.98717e-07
-0.000239234
0.00155455
3.68138e-05
1.93196e-05
2.5754e-05
8.93049e-07
1.00251e-05
3.29043e-06
6.06056e-05
8.24361e-06
4.53885e-06
9.37787e-07
1.29008e-07
6.60572e-05
5.05159e-07
5.00408e-05
9.25729e-05
-0.000168891
2.58854e-06
-0.000165879
-6.69995e-05
-4.77503e-05
-0.000413918
-2.36959e-05
-0.000110648
1.21689e-06
8.54428e-08
1.65194e-06
2.27602e-07
-1.15682e-06
2.36077e-06
-0.000224782
-0.000125537
-3.93223e-07
-2.17659e-06
-0.000287342
-0.000364898
-1.42232e-06
-1.9895e-06
0.000155886
0.000313096
-6.05861e-05
-0.000381799
-0.000400305
-1.88579e-06
0.000402238
2.02195e-07
-3.60197e-07
-1.19254e-07
-1.37885e-06
1.05596e-05
1.76102e-05
-3.72421e-07
3.83549e-06
-2.6301e-06
-6.84935e-07
4.2248e-05
1.21124e-05
1.64087e-05
1.15908e-05
-1.01471e-06
6.58724e-07
-0.000227943
1.96662e-06
-5.14128e-07
-0.000144963
-1.7535e-05
-5.26674e-05
-3.85656e-05
-7.14341e-05
0.00221957
-4.76121e-07
6.37217e-07
1.54853e-06
-1.2469e-06
-0.000354537
-0.000250966
-0.000170399
-9.10837e-05
-3.73074e-05
-1.50498e-06
-2.7938e-06
-2.07555e-06
1.43591e-06
1.03918e-07
-5.60175e-06
-8.86085e-06
-1.17862e-05
-1.6002e-06
-3.51586e-06
-1.95766e-05
-1.92808e-05
-3.99752e-05
-1.30469e-05
-2.08289e-05
-2.42807e-06
-5.2317e-05
-1.08418e-05
-2.46454e-06
-2.63736e-05
-6.86599e-06
-0.000103047
-3.42332e-05
-3.79519e-05
-0.000148539
-1.23365e-06
6.36472e-09
6.45548e-07
-3.24915e-06
-0.000176588
-9.98639e-05
-0.00022934
-1.19806e-06
-2.55329e-06
2.84253e-07
-4.215e-06
-1.15586e-05
-5.4427e-06
-1.76275e-05
-4.70745e-06
-2.20771e-06
-2.74732e-05
-4.93902e-05
-6.78314e-05
-5.64135e-05
-5.55843e-06
-3.32494e-06
-8.07627e-06
-2.0609e-05
-0.000124504
-0.000155048
2.43132e-07
-6.89416e-06
-1.0381e-05
-7.89177e-06
-4.57593e-06
-0.0001284
-0.000113755
8.40874e-07
-6.73418e-06
1.23707e-06
-0.000270743
1.64743e-06
3.52492e-07
1.63273e-07
-1.48455e-07
-2.66786e-07
-3.13886e-07
-5.97702e-07
-7.15932e-07
-4.76661e-07
-5.41674e-07
8.2665e-07
2.27559e-07
-1.68838e-07
-6.46424e-07
-1.0424e-06
-1.21237e-06
-1.28913e-06
-1.29172e-06
-8.52104e-07
8.75468e-07
1.76594e-07
-2.31304e-07
-8.46818e-07
-1.17953e-06
-1.16113e-06
-1.14159e-06
-9.02874e-07
-8.17343e-07
3.39481e-07
-2.75678e-08
-2.36375e-07
-4.30932e-07
-3.14772e-07
-5.59236e-07
-5.68584e-07
-8.53054e-07
-3.06172e-07
2.99688e-07
6.8816e-07
4.61927e-07
1.5018e-06
1.13886e-06
9.39397e-06
-3.82707e-07
7.34878e-06
9.42923e-06
0.000724326
3.02595e-06
3.79402e-06
2.27683e-07
9.81243e-07
2.47729e-06
1.65672e-06
1.41697e-06
1.21179e-06
6.09136e-07
-2.98588e-07
-3.52297e-07
-3.89769e-07
-2.65625e-07
-1.17528e-07
-5.49205e-08
-8.76603e-08
8.94295e-08
3.8632e-07
1.41807e-05
1.4275e-05
2.35783e-05
3.62336e-05
3.98673e-05
3.7271e-05
5.21167e-05
4.20302e-05
8.63716e-05
6.38264e-05
0.000124778
-5.68757e-05
0.000171803
0.000257926
0.000376755
0.00050217
0.000674869
0.000556848
-0.00039674
-0.00178242
-0.00375085
-0.00579508
-0.00805178
-0.0101326
-0.0112362
-0.00913648
-0.0119717
-0.00675765
-0.0107867
-0.0116153
-0.00780096
-0.00835396
-0.0047098
0.00452097
0.0162839
0.0237748
0.017374
0.0126876
0.0116628
0.01485
0.0133995
0.00875996
0.00858051
0.00957761
0.000411497
0.000205738
-0.000243355
-0.000939231
-0.00242353
-0.00361197
-0.00315964
-0.00440057
-0.00674951
-0.00613632
-0.00566421
-0.00521101
-0.00452198
-0.0038701
-0.00198581
-0.00143067
0.00513082
0.00599991
0.0159541
0.0241422
0.0183166
-8.04264e-05
-1.91e-05
-2.93864e-05
2.89494e-05
7.80885e-08
7.13732e-07
4.45882e-07
1.00201e-06
1.11068e-06
-2.14069e-07
6.48955e-07
1.12547e-06
0.0150777
0.0100886
0.000252127
2.38743e-06
-7.87126e-07
1.26957e-05
0.00564311
-0.00581996
0.000463396
2.1912e-06
1.64647e-05
0.000151012
0.00022415
0.00652597
-0.00478234
0.0139724
-1.55838e-07
-1.70134e-07
0.00027153
-0.00147953
-0.00070985
-0.00273938
-0.00245765
-0.00393328
-0.00377471
0.0186956
0.0231326
0.0137369
-0.000275004
-0.00325315
-0.00419388
-0.00699331
-0.00571488
-0.00656037
-0.00489064
8.6379e-05
9.49732e-06
-0.00737262
0.0148273
0.0139809
0.0153736
1.03169e-06
-7.6016e-07
3.82987e-06
-2.84317e-07
-4.16939e-07
2.82011e-06
1.62971e-06
6.13982e-06
2.6287e-05
5.95887e-05
6.51243e-05
0.000110615
0.000430285
0.000350804
-0.00124339
-0.00193327
-0.00380172
-0.00444553
-0.00666511
0.0171859
0.0165311
-0.00254515
-0.00121186
0.0132825
0.0152675
0.0136061
-0.000542423
-0.0022499
-0.00583548
-0.00432009
-0.00695486
-0.00351964
-0.00139175
0.00810983
0.00887859
-2.43735e-05
0.000163068
-2.2218e-07
3.77706e-06
-6.77893e-05
-0.00012856
4.27557e-07
-7.45716e-05
-2.78619e-05
-3.32794e-05
-0.000129608
-1.20031e-05
-2.30692e-07
9.54264e-07
0.017094
1.24789e-06
6.0453e-05
-4.31771e-07
-7.6848e-05
2.01648e-06
0.0183704
0.000321477
-0.00281686
0.010738
0.00014563
0.0202529
-0.0015685
0.00607093
-0.00260193
-0.00527209
0.0128248
2.64979e-06
-0.00227781
0.021279
0.0190987
-0.00102409
-0.00469052
0.0155606
0.019802
0.00323953
0.0157354
-0.00393808
-0.00392567
0.0171168
-0.00217744
-0.00223503
-0.00376466
-0.00488795
-0.00327826
-0.00522328
-0.0033294
-0.00518508
-0.0029976
-0.00286309
-0.00444467
-0.00227476
-0.00369208
4.59557e-05
-0.00160267
2.37304e-05
0.000460355
-0.00254313
-1.37361e-06
1.23647e-05
-0.0010545
0.000304918
0.000400393
-4.15981e-08
0.000167944
9.60862e-06
-0.000304658
1.86575e-06
7.46118e-05
4.63569e-06
-9.81464e-07
-0.000646052
-0.00177167
0.000111448
-8.29779e-07
-1.52869e-06
4.90546e-06
-0.00123127
5.39916e-07
0.0164503
-0.000174337
1.07893e-06
5.83376e-07
0.000137277
-5.48162e-07
-0.000145664
2.08345e-06
-1.3148e-05
-6.94089e-05
-4.11698e-05
-2.7813e-05
-8.8867e-05
1.4884e-06
-2.29551e-07
6.29011e-07
-5.78403e-07
-0.000457955
7.39101e-07
-0.00197534
8.45048e-05
-0.0013118
-9.64213e-07
-0.00111333
-1.44038e-06
-1.29425e-06
0.000366365
0.000127534
-0.00158652
-0.00269883
-0.00240466
-0.00308659
0.000167157
-0.0027422
-0.00348512
-0.00333166
-0.00423401
-0.00429602
-0.00460215
0.0162733
0.0147433
0.0208338
-0.00427303
-0.00422415
4.45319e-09
-0.00537553
-0.00481799
-0.00688542
-0.00500252
-0.00733556
-0.00660169
-0.00449824
-0.00749584
-0.00610735
-0.00547194
-0.00332059
-0.00523891
0.00284044
0.00201198
0.00866485
0.00904047
0.0146903
0.0144996
0.0161292
0.0139649
0.0138259
0.000197837
0.0199662
0.0188202
1.19684e-05
1.95601e-06
4.00383e-05
9.1605e-07
-9.80563e-07
-0.000884439
-6.06917e-05
-1.46893e-07
-1.22451e-06
2.66664e-05
-1.82875e-06
-1.95726e-06
2.17069e-07
-3.78679e-05
-1.22939e-06
-0.000147858
-2.01029e-05
2.1159e-06
-0.0002155
-2.42845e-06
1.31202e-06
-0.000115816
-2.1884e-05
-5.83708e-05
-3.31578e-05
-6.65158e-05
-5.03446e-07
4.64641e-07
2.19397e-07
-1.69485e-06
-0.000958268
-0.00135851
-3.32106e-06
-0.00142515
-1.94676e-06
-0.00205363
6.89609e-05
-5.57946e-06
-1.07168e-06
-0.00279221
-0.00107467
-0.00175058
0.000133375
-0.00235595
-0.00276058
-9.89932e-06
-0.00260308
8.04743e-05
-0.00339849
-0.00280118
-0.00310562
-0.0038047
-0.003469
-0.0028092
0.0144305
-0.00310721
-0.00410446
-0.0038924
-0.00431035
-0.0048192
-0.0044926
0.0133706
-0.00419031
-0.00584689
-0.00482284
-0.00301396
-0.000786651
0.00468268
-0.00291569
-0.00117654
0.00754142
0.00476695
0.00302071
0.0146005
0.0142635
-2.12694e-06
1.44625e-06
-1.26511e-05
-0.000604484
8.20199e-05
-5.35886e-06
-1.66626e-05
-1.01924e-05
-2.77385e-06
-1.26358e-05
-1.89989e-05
-2.06899e-06
-2.77712e-06
-0.000226454
-2.59605e-06
-0.000240559
-0.000233575
-0.000153496
3.10717e-07
-0.000103125
-0.00013592
-1.90592e-05
-2.9757e-05
-5.27307e-05
-0.000465565
-1.30611e-06
4.42568e-07
9.19994e-08
-3.10974e-06
-0.00127874
-0.00181965
-0.00235709
-0.00172565
-0.00311314
-1.14175e-05
-0.00253985
-6.80006e-06
-4.10161e-05
-0.00100609
2.39083e-05
-4.25431e-06
-0.00360575
-0.00290137
-0.00299437
-0.00475335
-4.21214e-05
-0.0050671
-0.00418088
-0.00473512
-0.00467416
-0.00481353
-0.00608301
-0.00623774
0.00592567
-0.00709629
-0.00605964
-0.00508725
-0.00619785
-0.00679889
-0.00761229
-0.00807237
-0.00529295
-0.00661546
-0.00075649
-0.00431318
-0.00169585
0.00769813
-6.43444e-06
5.4026e-05
-0.000335164
-1.49191e-05
-2.05386e-05
-4.1297e-05
-5.05865e-06
-5.70466e-06
-4.27737e-06
-0.000264876
-0.000158839
5.01754e-07
-0.000140528
-2.87164e-06
-0.000102844
-6.8856e-05
-1.6369e-05
0.000340204
7.57887e-07
-0.00174996
-0.00233576
-0.00174492
-0.00239261
-0.00124099
-0.00311587
-0.00310466
-4.53798e-05
-0.00359903
-0.00321765
-1.21651e-05
-0.0044138
-0.00451666
-0.000853496
-0.00439342
-0.00450953
-0.00449855
-0.00408455
-0.00443658
-0.00571482
-0.00504816
-0.00519352
-0.00209738
-0.000952631
0.00619265
-0.00485143
-0.00574331
-0.00695748
-0.00684646
-0.0067143
-0.0048611
0.000543267
-0.00030377
-3.54726e-05
-0.000451704
-0.000123166
-0.000882865
-3.93677e-06
1.47457e-06
-0.000381623
-6.93687e-06
-1.36097e-05
-1.49549e-05
-6.03698e-06
-1.00717e-05
-0.00505797
-0.00212319
-0.00262779
-0.00245647
-0.00180401
-0.0031492
-0.0030532
-0.00114316
-0.00378182
-9.14707e-05
-0.00339023
-0.00497127
-0.0045198
-0.00549175
-0.00481149
-0.00548359
-0.00482565
-0.00640586
-0.00528868
-0.00559277
-0.00545601
-0.00656457
-0.00522093
-0.00751279
-0.00588816
-0.00673119
-0.000695882
-0.00102887
-0.000324131
-0.000235531
-0.00474576
-0.00075533
-6.99857e-06
-0.000579494
-0.000118593
-6.14738e-06
-0.00150217
-0.000484508
-0.0059311
-4.4515e-05
0.0100255
-0.000119291
-7.54276e-05
-0.000285941
0.0442364
0.0457356
0.0443742
0.0521077
0.058293
0.0546451
0.0571819
0.0642576
0.0616078
0.0533218
0.048029
0.0483761
0.0421118
0.047618
0.0303299
0.0312054
0.0339392
0.0393611
0.0378209
0.0416269
0.0411745
0.0412007
0.0407865
0.0375392
0.0374996
0.0332748
0.0332703
0.0272202
0.0269779
0.0267163
0.0228174
0.0226995
0.0305524
0.0299998
0.028511
0.0303205
0.0286201
0.0244
0.02368
0.0231298
0.0247755
0.0234541
0.0126645
0.01163
0.0138841
0.0121237
0.0156729
0.0144391
0.0155376
0.0149189
0.0131516
0.0117936
0.011856
0.01259
0.0117621
0.0129295
-3.54149e-06
9.56652e-05
0.000198032
0.00015988
0.000189502
0.000385257
0.00047031
0.000388913
0.000632932
0.000715396
0.000771556
0.00064458
0.00105508
0.00114843
0.000835553
0.000660605
0.00261173
0.00115211
0.000151836
3.4294e-05
0.00124539
-0.000329896
-0.00132384
-0.00121692
-0.00332655
-0.0047938
-0.00415509
-0.00285504
-0.00601346
-0.00808696
-0.00708584
-0.00457076
-0.00835758
-0.0108408
-0.00993737
-0.00566767
-0.0113879
-0.0128605
-0.0119983
-0.00806321
-0.0124575
-0.0152322
-0.0131298
-0.00974676
-0.00976529
-0.0144857
-0.0138525
-0.00940108
-0.00921631
-0.0124897
-0.01232
-0.00878835
-0.00794764
-0.0121068
-0.0118441
-0.00823158
-0.00713453
-0.0111157
-0.0117867
-0.00733876
-0.0072449
-0.0101755
-0.0107463
-0.00642157
-0.0064579
-0.00945381
-0.00894917
-0.00488056
-0.00558165
-0.00721269
-0.00514126
-0.00285206
-0.00847405
-0.00241573
0.00134348
0.00097233
-0.00686479
0.00582466
0.0126788
0.0121093
0.0105495
0.0284168
0.0308789
0.0228247
0.0498983
0.0520802
0.0501502
0.0358371
0.0604006
0.0642897
0.0585202
0.0340665
0.0562393
0.0538524
0.0451083
0.0269415
0.0498028
0.0507701
0.0411957
0.0262513
0.0629924
0.06271
0.0556212
0.0343187
0.057735
0.0549271
0.0468018
0.0311314
0.00708662
0.0195953
0.0229755
0.0161914
-0.0238486
-0.0106632
0.00147247
-8.16789e-05
-0.0209428
-0.0207511
-0.0174106
-0.0108914
-0.018724
-0.0235324
-0.0218812
-0.0152779
-0.0178542
-0.0256011
-0.0272807
-0.0190613
-0.0184901
-0.0265817
-0.0289009
-0.0173386
-0.0198807
-0.0283832
-0.0288095
-0.0196988
-0.0205192
-0.0296289
-0.0301159
-0.0203241
-0.0212551
-0.0308402
-0.0300132
-0.0203059
-0.0237061
-0.0330251
-0.0307869
-0.0189842
-0.0300459
-0.0317275
-0.0285019
-0.0180842
-0.0243764
-0.0257991
-0.0226914
-0.0150371
-0.0141389
-0.0176567
-0.0172028
-0.0114324
-0.00852352
-0.0120174
-0.0119871
-0.00789104
-0.00420449
-0.00673392
-0.00678527
-0.00477013
0.00406106
-0.000646008
-0.0025358
-0.00198087
0.0042007
0.0021605
0.000460978
4.4638e-05
0.00220042
0.00212415
0.00142471
0.000909034
0.00102684
0.00151538
0.00143294
0.00102531
0.000487899
0.0010515
0.00115879
0.000883548
0.000395503
0.000770577
0.000887943
0.000658878
0.000292683
0.000543502
0.000644243
0.000482646
0.000219666
0.000407318
0.00045355
0.000331728
0.00017834
0.000296552
0.000314099
0.000229923
0.000135011
0.000214023
0.000224612
0.000158496
9.44737e-05
0.000151343
0.000157512
0.000107529
6.76999e-05
0.000110916
0.000114683
7.56779e-05
5.085e-05
7.98729e-05
7.9179e-05
5.14422e-05
3.55482e-05
5.38445e-05
5.47088e-05
3.77575e-05
2.61676e-05
3.81521e-05
3.82216e-05
2.38282e-05
1.851e-05
2.76521e-05
2.66968e-05
1.63381e-05
1.43882e-05
1.95711e-05
1.94258e-05
1.2859e-05
9.48987e-06
1.43405e-05
1.38412e-05
8.62082e-06
6.34442e-06
1.01062e-05
8.76724e-06
5.68217e-06
4.32481e-06
5.90731e-06
5.73268e-06
3.18653e-06
2.20499e-06
3.37995e-06
3.34769e-06
2.05851e-06
-0.0381602
-0.0118038
-0.00529834
-0.00577745
-0.00564562
-0.00655572
-0.00648153
-0.00713467
-0.00781477
-0.0163616
-0.0470975
-0.0150382
-0.00588169
-0.00662887
-0.00500546
-0.00690087
-0.00605137
-0.00776005
-0.00813654
-0.0151433
-0.0382289
-0.0136157
-0.00616831
-0.0061806
-0.00535804
-0.00705337
-0.00698474
-0.00728525
-0.00835573
-0.0136923
-0.0527872
-0.0148481
-0.0078456
-0.00322984
-0.00412274
-0.00535399
-0.00542681
-0.00526141
-0.00688532
-0.00978478
-0.0444552
-0.0135772
-0.00729193
-0.00503416
-0.00510315
-0.00549497
-0.00521486
-0.00500067
-0.00602402
-0.0075633
-0.0420733
-0.00838523
-0.00426426
-0.00343047
-0.00316241
-0.00393492
-0.00424991
-0.00437948
-0.00483226
-0.00509158
-0.0416062
-0.00804066
-0.00496603
-0.00249186
-0.00279323
-0.00407359
-0.00363711
-0.00486038
-0.00487968
-0.00450845
-0.0471882
-0.010911
-0.00493184
-0.00482255
-0.00385238
-0.00314844
-0.00393467
-0.0033977
-0.00426664
-0.00259423
-0.0415345
-0.00974914
-0.00167888
-0.00338583
-0.0049134
-0.00508065
-0.00328508
-0.00368686
-0.00415372
-0.00380157
-0.0395197
-0.00981937
-0.00547929
-0.00491725
-0.00470422
-0.00472874
-0.00349563
-0.00334985
-0.00426152
-0.00477439
-0.0446603
-0.0146593
-0.00625294
-0.00745489
-0.0041179
-0.00279653
-0.0037662
-0.00380491
-0.00322977
-0.00520669
-0.0305903
-0.00537239
-0.00590982
-0.00460635
-0.00472113
-0.00487142
-0.00443921
-0.00423298
-0.00417786
-0.00561125
-0.042855
-0.0106837
-0.00523336
-0.00326521
-0.00364547
-0.00463078
-0.00396882
-0.00403472
-0.00341807
-0.0056512
-0.0265464
-0.00490783
-0.00129234
-0.00174813
-0.00223117
-0.00217414
-0.00310413
-0.00358796
-0.00351302
-0.00573028
1.05148e-153
1.05148e-153
1.05148e-153
1.05148e-153
1.05148e-153
1.05148e-153
1.05148e-153
1.05148e-153
1.05148e-153
1.05148e-153
1.05148e-153
1.05148e-153
1.05148e-153
1.05148e-153
1.05148e-153
1.05148e-153
1.05148e-153
1.05148e-153
1.05148e-153
1.05148e-153
1.05148e-153
1.05148e-153
1.05148e-153
1.05148e-153
1.05148e-153
1.05148e-153
1.05148e-153
1.05148e-153
1.05148e-153
1.05148e-153
1.05148e-153
1.05148e-153
1.05148e-153
1.05148e-153
1.05148e-153
1.05148e-153
1.05148e-153
1.05148e-153
1.05148e-153
1.05148e-153
1.05148e-153
1.05148e-153
1.05148e-153
1.05148e-153
1.05148e-153
1.05148e-153
1.05148e-153
1.05148e-153
1.05148e-153
1.05148e-153
1.05148e-153
1.05148e-153
1.05148e-153
1.05148e-153
1.05148e-153
1.05148e-153
1.05148e-153
1.05148e-153
1.05148e-153
1.05148e-153
1.05148e-153
1.05148e-153
1.05148e-153
1.05148e-153
1.05148e-153
1.05148e-153
1.05148e-153
1.05148e-153
1.05148e-153
1.05148e-153
1.05148e-153
1.05148e-153
1.05148e-153
1.05148e-153
1.05148e-153
1.05148e-153
1.05148e-153
1.05148e-153
1.05148e-153
1.05148e-153
1.05148e-153
1.05148e-153
1.05148e-153
1.05148e-153
1.05148e-153
1.05148e-153
1.05148e-153
1.05148e-153
1.05148e-153
1.05148e-153
1.05148e-153
1.05148e-153
1.05148e-153
1.05148e-153
1.05148e-153
1.05148e-153
1.05148e-153
1.05148e-153
1.05148e-153
1.05148e-153
1.05148e-153
1.05148e-153
1.05148e-153
1.05148e-153
1.05148e-153
1.05148e-153
1.05148e-153
1.05148e-153
1.05148e-153
1.05148e-153
1.05148e-153
1.05148e-153
1.05148e-153
1.05148e-153
1.05148e-153
1.05148e-153
1.05148e-153
1.05148e-153
1.05148e-153
1.05148e-153
1.05148e-153
1.05148e-153
1.05148e-153
1.05148e-153
1.05148e-153
1.05148e-153
1.05148e-153
1.05148e-153
1.05148e-153
1.05148e-153
1.05148e-153
1.05148e-153
1.05148e-153
1.05148e-153
1.05148e-153
1.05148e-153
1.05148e-153
1.05148e-153
1.05148e-153
1.05148e-153
1.05148e-153
1.05148e-153
1.05148e-153
1.05148e-153
1.05148e-153
1.05148e-153
1.05148e-153
1.05148e-153
1.05148e-153
1.05148e-153
1.05148e-153
1.05148e-153
1.05148e-153
1.05148e-153
1.05148e-153
1.05148e-153
1.05148e-153
1.05148e-153
1.05148e-153
1.05148e-153
1.05148e-153
1.05148e-153
1.05148e-153
1.05148e-153
1.05148e-153
1.05148e-153
1.05148e-153
1.05148e-153
1.05148e-153
1.05148e-153
1.05148e-153
1.05148e-153
1.05148e-153
1.05148e-153
1.05148e-153
1.05148e-153
1.05148e-153
1.05148e-153
1.05148e-153
1.05148e-153
1.05148e-153
1.05148e-153
1.05148e-153
1.05148e-153
1.05148e-153
1.05148e-153
1.05148e-153
1.05148e-153
1.05148e-153
1.05148e-153
1.05148e-153
1.05148e-153
1.05148e-153
1.05148e-153
1.05148e-153
1.05148e-153
1.05148e-153
1.05148e-153
1.05148e-153
1.05148e-153
1.05148e-153
1.05148e-153
1.05148e-153
1.05148e-153
1.05148e-153
1.05148e-153
1.05148e-153
1.05148e-153
1.05148e-153
1.05148e-153
1.05148e-153
1.05148e-153
1.05148e-153
1.05148e-153
1.05148e-153
1.05148e-153
1.05148e-153
1.05148e-153
1.05148e-153
1.05148e-153
1.05148e-153
1.05148e-153
1.05148e-153
1.05148e-153
1.05148e-153
1.05148e-153
1.05148e-153
1.05148e-153
1.05148e-153
1.05148e-153
1.05148e-153
1.05148e-153
1.05148e-153
1.05148e-153
1.05148e-153
1.05148e-153
1.05148e-153
1.05148e-153
1.05148e-153
1.05148e-153
1.05148e-153
1.05148e-153
1.05148e-153
1.05148e-153
1.05148e-153
1.05148e-153
1.05148e-153
1.05148e-153
1.05148e-153
1.05148e-153
1.05148e-153
1.05148e-153
1.05148e-153
1.05148e-153
1.05148e-153
1.05148e-153
1.05148e-153
1.05148e-153
1.05148e-153
1.05148e-153
1.05148e-153
1.05148e-153
1.05148e-153
1.05148e-153
1.05148e-153
1.05148e-153
1.05148e-153
1.05148e-153
1.05148e-153
1.05148e-153
1.05148e-153
1.05148e-153
1.05148e-153
1.05148e-153
1.05148e-153
1.05148e-153
1.05148e-153
1.05148e-153
1.05148e-153
1.05148e-153
1.05148e-153
1.05148e-153
1.05148e-153
1.05148e-153
1.05148e-153
1.05148e-153
1.05148e-153
1.05148e-153
1.05148e-153
1.05148e-153
1.05148e-153
1.05148e-153
1.05148e-153
1.05148e-153
1.05148e-153
1.05148e-153
1.05148e-153
1.05148e-153
1.05148e-153
1.05148e-153
1.05148e-153
1.05148e-153
1.05148e-153
1.05148e-153
1.05148e-153
1.05148e-153
1.05148e-153
1.05148e-153
1.05148e-153
1.05148e-153
1.05148e-153
1.05148e-153
1.05148e-153
1.05148e-153
1.05148e-153
1.05148e-153
1.05148e-153
1.05148e-153
1.05148e-153
1.05148e-153
1.05148e-153
1.05148e-153
1.05148e-153
1.05148e-153
1.05148e-153
1.05148e-153
1.05148e-153
1.05148e-153
1.05148e-153
1.05148e-153
1.05148e-153
1.05148e-153
1.05148e-153
1.05148e-153
1.05148e-153
1.05148e-153
1.05148e-153
1.05148e-153
1.05148e-153
1.05148e-153
1.05148e-153
1.05148e-153
1.05148e-153
1.05148e-153
1.05148e-153
1.05148e-153
1.05148e-153
1.05148e-153
1.05148e-153
1.05148e-153
1.05148e-153
1.05148e-153
1.05148e-153
1.05148e-153
1.05148e-153
1.05148e-153
1.05148e-153
1.05148e-153
1.05148e-153
1.05148e-153
1.05148e-153
1.05148e-153
1.05148e-153
1.05148e-153
1.05148e-153
1.05148e-153
1.05148e-153
1.05148e-153
1.05148e-153
1.05148e-153
1.05148e-153
1.05148e-153
1.05148e-153
1.05148e-153
1.05148e-153
1.05148e-153
1.05148e-153
1.05148e-153
1.05148e-153
1.05148e-153
1.05148e-153
1.05148e-153
1.05148e-153
1.05148e-153
1.05148e-153
1.05148e-153
1.05148e-153
1.05148e-153
1.05148e-153
1.05148e-153
1.05148e-153
1.05148e-153
1.05148e-153
1.05148e-153
1.05148e-153
1.05148e-153
1.05148e-153
1.05148e-153
1.05148e-153
1.05148e-153
1.05148e-153
1.05148e-153
1.05148e-153
1.05148e-153
1.05148e-153
1.05148e-153
1.05148e-153
1.05148e-153
1.05148e-153
1.05148e-153
1.05148e-153
1.05148e-153
1.05148e-153
1.05148e-153
1.05148e-153
1.05148e-153
1.05148e-153
1.05148e-153
1.05148e-153
1.05148e-153
1.05148e-153
1.05148e-153
1.05148e-153
1.05148e-153
1.05148e-153
1.05148e-153
1.05148e-153
1.05148e-153
1.05148e-153
1.05148e-153
1.05148e-153
1.05148e-153
1.05148e-153
1.05148e-153
1.05148e-153
1.05148e-153
1.05148e-153
1.05148e-153
1.05148e-153
1.05148e-153
1.05148e-153
1.05148e-153
1.05148e-153
1.05148e-153
1.05148e-153
1.05148e-153
1.05148e-153
1.05148e-153
1.05148e-153
1.05148e-153
1.05148e-153
1.05148e-153
1.05148e-153
1.05148e-153
1.05148e-153
1.05148e-153
1.05148e-153
1.05148e-153
1.05148e-153
1.05148e-153
1.05148e-153
1.05148e-153
1.05148e-153
1.05148e-153
1.05148e-153
1.05148e-153
1.05148e-153
1.05148e-153
1.05148e-153
1.05148e-153
1.05148e-153
1.05148e-153
1.05148e-153
1.05148e-153
1.05148e-153
1.05148e-153
1.05148e-153
1.05148e-153
1.05148e-153
1.05148e-153
1.05148e-153
1.05148e-153
1.05148e-153
1.05148e-153
1.05148e-153
1.05148e-153
1.05148e-153
1.05148e-153
1.05148e-153
1.05148e-153
1.05148e-153
1.05148e-153
1.05148e-153
1.05148e-153
1.05148e-153
1.05148e-153
1.05148e-153
1.05148e-153
1.05148e-153
1.05148e-153
1.05148e-153
1.05148e-153
1.05148e-153
1.05148e-153
1.05148e-153
1.05148e-153
1.05148e-153
1.05148e-153
1.05148e-153
1.05148e-153
1.05148e-153
1.05148e-153
1.05148e-153
1.05148e-153
1.05148e-153
1.05148e-153
1.05148e-153
1.05148e-153
1.05148e-153
1.05148e-153
1.05148e-153
1.05148e-153
1.05148e-153
1.05148e-153
1.05148e-153
1.05148e-153
1.05148e-153
1.05148e-153
1.05148e-153
1.05148e-153
1.05148e-153
1.05148e-153
1.05148e-153
1.05148e-153
1.05148e-153
1.05148e-153
1.05148e-153
1.05148e-153
1.05148e-153
1.05148e-153
1.05148e-153
1.05148e-153
1.05148e-153
1.05148e-153
1.05148e-153
1.05148e-153
1.05148e-153
1.05148e-153
1.05148e-153
1.05148e-153
1.05148e-153
1.05148e-153
1.05148e-153
1.05148e-153
1.05148e-153
1.05148e-153
1.05148e-153
1.05148e-153
1.05148e-153
1.05148e-153
1.05148e-153
1.05148e-153
1.05148e-153
1.05148e-153
1.05148e-153
1.05148e-153
1.05148e-153
1.05148e-153
1.05148e-153
1.05148e-153
1.05148e-153
1.05148e-153
1.05148e-153
1.05148e-153
1.05148e-153
1.05148e-153
1.05148e-153
1.05148e-153
1.05148e-153
1.05148e-153
1.05148e-153
1.05148e-153
1.05148e-153
1.05148e-153
1.05148e-153
1.05148e-153
1.05148e-153
1.05148e-153
1.05148e-153
1.05148e-153
1.05148e-153
1.05148e-153
1.05148e-153
1.05148e-153
1.05148e-153
1.05148e-153
1.05148e-153
1.05148e-153
1.05148e-153
1.05148e-153
1.05148e-153
1.05148e-153
1.05148e-153
1.05148e-153
1.05148e-153
1.05148e-153
1.05148e-153
1.05148e-153
1.05148e-153
1.05148e-153
1.05148e-153
1.05148e-153
1.05148e-153
1.05148e-153
1.05148e-153
1.05148e-153
1.05148e-153
1.05148e-153
1.05148e-153
1.05148e-153
1.05148e-153
1.05148e-153
1.05148e-153
1.05148e-153
1.05148e-153
1.05148e-153
1.05148e-153
1.05148e-153
1.05148e-153
1.05148e-153
1.05148e-153
1.05148e-153
1.05148e-153
1.05148e-153
1.05148e-153
1.05148e-153
1.05148e-153
1.05148e-153
1.05148e-153
1.05148e-153
1.05148e-153
1.05148e-153
1.05148e-153
1.05148e-153
1.05148e-153
1.05148e-153
1.05148e-153
1.05148e-153
1.05148e-153
1.05148e-153
1.05148e-153
1.05148e-153
1.05148e-153
1.05148e-153
1.05148e-153
1.05148e-153
1.05148e-153
1.05148e-153
1.05148e-153
1.05148e-153
1.05148e-153
1.05148e-153
1.05148e-153
1.05148e-153
1.05148e-153
1.05148e-153
1.05148e-153
1.05148e-153
1.05148e-153
1.05148e-153
1.05148e-153
1.05148e-153
1.05148e-153
1.05148e-153
1.05148e-153
1.05148e-153
1.05148e-153
1.05148e-153
1.05148e-153
1.05148e-153
1.05148e-153
1.05148e-153
1.05148e-153
1.05148e-153
1.05148e-153
1.05148e-153
1.05148e-153
1.05148e-153
1.05148e-153
1.05148e-153
1.05148e-153
1.05148e-153
1.05148e-153
1.05148e-153
1.05148e-153
1.05148e-153
1.05148e-153
1.05148e-153
1.05148e-153
1.05148e-153
1.05148e-153
1.05148e-153
1.05148e-153
1.05148e-153
1.05148e-153
1.05148e-153
1.05148e-153
1.05148e-153
1.05148e-153
1.05148e-153
1.05148e-153
1.05148e-153
1.05148e-153
1.05148e-153
1.05148e-153
1.05148e-153
1.05148e-153
1.05148e-153
1.05148e-153
1.05148e-153
1.05148e-153
1.05148e-153
1.05148e-153
1.05148e-153
1.05148e-153
1.05148e-153
1.05148e-153
1.05148e-153
1.05148e-153
1.05148e-153
1.05148e-153
1.05148e-153
1.05148e-153
1.05148e-153
1.05148e-153
1.05148e-153
1.05148e-153
1.05148e-153
1.05148e-153
1.05148e-153
1.05148e-153
1.05148e-153
1.05148e-153
1.05148e-153
1.05148e-153
1.05148e-153
1.05148e-153
1.05148e-153
1.05148e-153
1.05148e-153
1.05148e-153
1.05148e-153
1.05148e-153
1.05148e-153
1.05148e-153
1.05148e-153
1.05148e-153
1.05148e-153
1.05148e-153
1.05148e-153
1.05148e-153
1.05148e-153
7.22041e-05
0.000142972
4.98642e-05
0.00012308
0.000121471
6.63293e-05
-9.72418e-05
-0.000362894
-0.000320625
-0.000241921
-4.08055e-05
-0.000260087
-0.00020637
0.000217294
4.97698e-05
-6.1022e-05
-0.000165301
-0.000209109
-0.000360677
-0.00104621
-0.000445438
-0.000858804
0.00019998
0.000184054
-0.000328022
-8.93321e-05
1.81605e-06
3.62996e-06
4.70715e-06
1.24792e-06
2.61253e-06
5.45538e-07
3.18459e-08
3.6755e-06
8.99178e-07
-2.14282e-08
2.60675e-06
3.17673e-06
2.22084e-06
3.18395e-06
2.02882e-06
2.85097e-06
1.87582e-06
2.50158e-06
9.42164e-07
1.20638e-06
3.21103e-06
4.20193e-06
1.75964e-06
1.02109e-06
-0.00640258
-0.0154512
-0.0019059
-0.0135639
-0.00607059
-0.00263609
-0.000901939
0.00901654
-0.00297842
-0.00721541
-0.000246229
-0.000214088
-0.000299646
-0.000166053
-0.000244602
-0.000174939
-0.000265067
-0.000450516
-0.0074368
-0.000205678
-0.000331153
0.0104442
0.0368013
-0.00411581
0.0119075
0.0190965
0.0158476
-0.0126755
-0.0166966
4.15814e-06
3.56185e-06
4.52889e-06
3.55628e-06
3.3932e-06
3.61919e-06
4.10627e-06
5.00349e-06
3.4482e-06
4.1768e-06
-0.000433845
-0.000256368
-0.00031578
4.10885e-06
-4.62476e-08
6.01015e-07
7.61469e-08
-5.15977e-07
-3.49406e-07
6.38001e-07
-3.39238e-07
2.45806e-08
-3.68741e-07
1.04926e-07
-2.43171e-07
5.92865e-07
8.42269e-07
6.36014e-08
-5.45536e-07
-0.00201714
-0.000864312
-0.00124105
-0.00196868
-0.000897057
-0.000206766
-0.000424826
-0.00136955
0.000252567
-0.000360983
-0.000669211
-3.25369e-05
-0.0131882
-0.00938553
-0.000938409
-0.000279759
3.94838e-07
-4.74539e-07
-4.94186e-07
3.15217e-06
2.44201e-06
6.19083e-06
3.86745e-06
-5.16384e-07
9.01395e-05
3.26118e-05
7.04899e-05
5.0191e-05
0.000115645
4.71392e-05
0.000126988
-0.0122469
-0.00645769
-0.0179872
4.5834e-05
0.000143921
5.06471e-05
-0.00861263
-0.00730244
-0.00664715
-0.00386836
-0.0106017
-0.0106724
-0.0113352
-0.00731981
-0.0122616
-0.00974071
-0.00849695
-0.0101354
-0.0101877
-0.00597868
-0.00646963
-0.00869226
-0.010005
-0.00731254
-0.00822132
0.0408915
0.040299
0.0466344
0.0511871
0.0244393
0.0348745
0.0373793
0.0292641
0.0250829
0.0273293
0.0308317
0.0444501
-0.000106467
-0.000208111
-0.000397091
-0.000549503
-0.000223615
-0.000498258
-0.000200582
0.000503442
0.000314653
2.99344e-08
4.02177e-05
-0.000147321
-0.000384451
-7.85878e-05
-9.13249e-05
-0.000146201
-0.000105229
-5.33081e-05
-0.00721082
-0.0105401
-0.0107074
-0.0112302
-9.73593e-05
-4.32616e-05
-3.82722e-05
2.74333e-05
-9.10479e-05
-0.000139023
-2.04703e-05
-1.42134e-05
-1.37384e-05
-2.97519e-05
1.90007e-06
-1.44702e-05
-2.06e-05
-1.86649e-05
-7.91601e-05
-6.23306e-05
-6.38751e-05
-1.58909e-05
3.90433e-07
1.66885e-05
-7.44047e-06
-1.91311e-05
-5.1891e-05
-4.16835e-06
-8.30671e-05
-0.000317126
-0.000210401
-0.000288752
-0.000219792
-0.000163781
-5.79149e-06
-7.11542e-05
0.000124972
-5.15027e-06
-6.54352e-06
-9.14322e-06
-6.02882e-06
-2.87221e-06
-3.21309e-06
-2.84296e-06
-4.84684e-06
-3.05265e-06
-4.9101e-06
1.44359e-06
-3.57717e-06
-2.69617e-06
-1.22083e-06
-1.89597e-06
-3.31356e-06
-5.28192e-06
-3.43105e-06
-1.77004e-06
-2.40503e-06
-0.00950649
-0.0081671
-0.00795307
-0.0106755
-0.00961745
-0.00836706
-0.00589244
-0.00739554
8.76648e-06
6.10019e-06
3.20041e-06
1.92638e-06
1.41078e-07
3.14023e-06
8.51875e-07
4.03672e-06
5.91824e-06
6.51532e-06
5.5934e-06
4.14366e-06
4.69808e-06
3.8987e-06
1.85363e-06
3.28344e-06
1.41184e-07
-5.86509e-08
7.4043e-07
1.32206e-06
3.12169e-07
-1.66626e-06
-4.08311e-06
7.82564e-07
1.45741e-06
-7.45092e-06
-7.12924e-06
-3.23469e-06
-1.40887e-06
-0.0055479
-1.29717e-05
1.3504e-05
1.07524e-05
3.41857e-06
3.66467e-06
-0.0104878
-0.0102743
-0.0104205
-0.010529
6.08713e-06
1.62437e-05
2.01728e-06
7.74313e-07
1.17967e-06
1.16982e-06
-0.000103583
-0.000116798
-0.000162075
-0.000235501
-0.0135858
-0.0112457
-0.0149006
-0.00678553
-0.0179427
-0.0177407
-0.00905677
-0.013772
-0.0170292
-0.0226087
0.0479089
0.0543391
0.0443323
0.0524172
0.0516454
0.0460881
0.0492572
0.0419135
0.0334462
0.0557664
0.0566882
0.0493882
0.0375504
0.041317
0.0294924
0.0415628
0.0522718
0.0463738
0.0448322
-0.0215383
-0.0122063
-0.0032908
0.0224952
0.041182
-0.000104302
-0.000349191
-0.000228163
-0.000163255
-0.000323755
0.0109343
0.0176537
0.00794892
-0.00025505
-0.000148384
-1.95973e-07
-7.60585e-07
-1.16439e-06
8.49866e-07
1.62742e-07
-3.61097e-07
3.59499e-07
-1.34929e-06
0.0458557
0.0412404
0.0411084
0.037827
0.0392375
0.049497
0.0391836
0.0464689
0.0358886
-0.00651249
-0.00824138
-0.00190336
-0.00127612
-0.0013021
-0.00211689
-0.00149394
-0.0011867
-0.0355557
-0.0105261
-0.0167549
-0.0224359
-0.00165582
-0.00221305
-0.00337271
-0.00255986
-0.00164481
-0.00346348
-0.00377544
-0.000311672
-0.000204133
-0.0002015
-0.000239242
-0.00015194
-0.000313919
-0.00024841
-0.00703853
-0.0110543
-0.0118982
-0.0112452
-0.000306445
-0.00029861
-1.06184e-06
-6.48027e-07
-9.53179e-07
-3.92644e-08
-1.06949e-06
1.02138e-06
-4.40684e-07
-1.52478e-08
-5.74354e-07
0.0326036
0.0392682
0.043209
-0.0202409
-0.010035
-0.0231456
-0.0193797
-0.0278018
-0.0195204
-0.0236977
-0.0108248
-0.0183499
-0.0173388
-0.0109164
-0.010724
-0.0241739
0.012947
0.0273502
0.0404102
0.0412563
0.0355878
0.0154276
-0.0382457
0.00340158
-0.00662614
-0.00657493
-5.18575e-05
-3.93358e-05
-4.09074e-05
-4.77084e-05
-3.03783e-05
-3.29215e-05
-2.69267e-05
-2.52039e-05
-1.96476e-05
-2.19225e-05
-1.44215e-05
-2.8807e-05
-2.16744e-05
-2.63227e-05
-3.87469e-05
-3.4668e-05
-1.35817e-05
-2.02513e-05
-3.99078e-06
4.38325e-06
5.54674e-06
-0.014405
-0.0162356
-0.0140863
-0.0147136
-0.0158865
-0.00809121
-0.00902151
-0.000147061
-0.000124681
-0.000156658
-6.24315e-05
-0.000108824
-0.00383138
-0.00626639
-0.00605694
-0.0059629
-0.00357353
-0.00327753
-0.00398321
-0.000163661
-0.0112507
-0.0124591
-0.0112869
-0.000139717
-0.000186864
-0.00598946
0.0233236
0.000601871
0.000174549
-0.000966967
0.000235349
-0.00168836
-0.0216765
1.22131e-05
-0.00367968
-0.00375083
-0.00394584
-0.00584453
-0.00208865
-0.00282809
-5.62062e-06
-4.82851e-06
-2.65407e-06
-3.82383e-06
-2.64778e-06
-2.0651e-06
-2.47107e-06
9.5848e-06
6.07666e-06
4.30158e-06
6.76668e-06
4.53461e-06
2.11348e-06
4.17753e-06
1.02902e-05
0.0369115
0.0216816
0.043849
0.0376924
0.0314949
0.0192172
0.0218002
0.0481876
0.022351
0.039341
0.0481286
0.0380603
0.0278671
0.0334718
-0.000166196
-0.000294507
-0.000104764
-0.00015432
-6.85128e-05
-0.000133818
-0.000273166
-0.000172671
-0.00344003
-0.00543364
-0.00402497
-0.00215243
-0.0145058
-0.0149441
-0.0165337
0.000925232
-0.000325102
-0.00530856
-0.005249
-0.00632176
-0.00634879
-0.00527706
-0.00584978
-0.00130073
-0.00242048
-0.00184618
-0.0010754
-0.000557435
-0.000374456
-0.000800495
-0.00117342
-0.00103642
-0.0025839
-0.000607603
-0.000810844
-0.000537875
-0.00041288
-0.0128102
-0.00805358
-0.00114819
-0.00218718
-0.00081374
-0.00178584
-0.000700804
-0.00095639
-0.000729414
-0.000731526
-0.0059113
-0.012624
-0.00970344
-0.00829704
-0.00678098
-0.00652355
-0.0105826
0.00489223
-0.0100094
-0.00717832
-0.00698814
-0.00762599
-0.0105032
-0.00663882
-0.00687179
-0.0078571
-0.00652825
-0.00699592
-0.0054686
-0.00529781
-0.00743391
-0.00680935
-0.00359783
-0.00484438
0.0002314
0.000325902
5.07594e-05
-2.09449e-05
-3.42779e-05
-0.000133962
-0.000125994
1.47108e-05
-0.000124139
2.43256e-05
-0.0218009
-0.00479186
-0.00387917
-0.00617213
-0.00339385
-0.00566045
-0.00430391
-0.00419714
-0.00302885
-0.00581849
-0.00273916
-0.00297967
-0.00075145
-0.000837977
-0.00155276
-0.000549488
-0.000893545
-0.0010642
-0.000722536
-7.2947e-06
-2.67691e-06
-3.30788e-06
-1.34837e-06
-0.00902007
-1.11752e-05
-1.33167e-05
-6.8953e-06
-0.00445265
-0.00441252
-0.00560966
-0.0101884
-0.0113293
-0.0116944
-0.0108237
-0.0106608
-0.0101693
-0.00861463
-7.32718e-06
-0.00133604
-0.00108433
-0.000968473
-0.00236015
-0.0016016
-0.000758882
-0.00145735
0.0164182
0.0257721
-0.00229095
-0.00115605
-0.00147997
-0.00110449
-0.000620984
-0.000705816
-0.00828743
-1.75516e-06
-2.58317e-06
-3.51637e-06
-2.30667e-06
-1.9968e-06
-1.3615e-06
-1.8899e-06
-8.41155e-07
-8.11963e-07
-8.70206e-07
-1.71594e-06
-6.67036e-07
-4.9539e-07
-8.17592e-07
-2.23709e-05
-3.5587e-05
-3.17758e-05
-4.40444e-05
-1.77964e-05
-6.7225e-05
1.28993e-05
-2.49815e-06
-9.84535e-07
5.38417e-06
-0.00256043
-0.00444547
0.00314086
-0.00360381
-0.00643502
-0.00798916
-0.00321702
-0.00248291
1.176e-06
2.72348e-06
1.20815e-06
6.74746e-07
2.73678e-06
1.63448e-07
2.84068e-06
1.15437e-06
-0.00254064
-1.85109e-06
-1.46901e-06
-3.64168e-06
-7.76723e-07
-1.76152e-06
-3.57873e-06
-5.43106e-06
-3.11412e-06
-7.95496e-06
-6.99462e-06
-9.45784e-06
-8.4353e-06
-8.22353e-06
-6.57432e-06
-5.5096e-06
-8.03019e-06
-1.39362e-05
-1.87834e-05
-5.81246e-06
1.73242e-06
-5.24595e-06
-3.23364e-06
-4.8249e-06
-4.12534e-06
-0.00781225
-0.00563256
-0.0110404
-0.00743868
-4.82192e-06
-0.00374677
-0.00666631
-0.00651041
-0.00735227
-0.00371627
3.98115e-05
9.29289e-05
7.44787e-05
0.000164175
-0.0115714
-0.00835474
-0.0121339
-0.00795549
-0.0119696
-0.0102123
-0.0115749
-0.0107169
-0.00768018
-0.0109312
-0.0180672
-0.0214095
-0.0185114
-0.0165136
-0.016478
-0.0178046
-0.0175267
-0.0134155
-0.0168419
-0.0237769
-0.0126429
-0.0221172
-0.0208452
-0.0248518
-0.0215049
-0.0162518
-0.0184219
-0.0154559
-0.0172269
-0.0213519
-0.0264717
-0.0180625
0.0270507
0.00497686
0.0287945
0.0445584
0.044892
-0.0039498
-0.011118
-0.0102935
-0.0112565
-0.0119515
-0.00995175
-0.00918066
-0.0108506
-0.0108812
-0.010199
0.000102846
0.00032138
-7.50415e-05
-6.25804e-05
0.000647897
-0.00951928
0.000211157
-0.000356027
-0.0111473
-0.00993229
-0.00891296
-0.00704046
-0.00596227
0.00758451
0.0163975
0.0284396
0.00941928
0.00553362
-0.00987025
-0.0105307
-0.00759412
-2.79588e-05
9.02531e-06
5.02188e-05
5.03803e-05
1.06466e-05
3.70143e-05
-3.43484e-05
-0.00789284
-0.0131772
-0.0117133
-0.00768054
-0.0122952
-1.33166e-05
-7.49028e-06
-9.34971e-06
-1.1251e-05
-5.47869e-06
-9.82229e-06
-0.00509906
-1.24073e-05
-1.25559e-05
-0.00978782
-0.00915955
0.000430966
0.000275472
0.000397424
0.000267245
0.000273131
0.00047423
0.000450937
0.000276459
0.00031437
-0.00564946
-0.00695265
-0.010234
-0.00785265
-2.25191e-07
-1.68262e-06
-7.19293e-05
-0.00915296
-0.00601978
-0.0103328
-0.00344205
-0.00248444
-0.00432007
-0.00536357
-0.00259837
-0.00608823
-0.00395444
-1.05869e-07
9.17142e-07
-0.0120484
-0.0127166
-0.0108218
-0.0108146
-0.0119052
-2.62529e-06
-2.5595e-06
-8.58939e-06
-3.08022e-06
-3.35214e-06
1.051e-06
2.05622e-06
-5.43426e-06
2.25757e-06
3.39574e-06
4.18734e-06
2.75895e-06
2.60896e-06
-2.07933e-07
7.90112e-07
4.86041e-07
5.88841e-07
-9.85659e-07
-1.52038e-07
-1.03007e-06
-2.80117e-07
-4.59788e-07
-1.55189e-06
-7.51107e-07
-6.92476e-07
0.000437797
0.000373307
0.000350738
0.000256612
0.00072948
0.000645089
0.000602554
-0.0119022
-0.0118133
-0.0111652
-3.90321e-05
-4.2807e-05
-0.00609453
-0.00617191
-0.00570695
-0.0100949
-5.74674e-05
-6.2061e-05
-8.12985e-06
-4.64585e-05
1.51536e-05
4.08606e-06
4.99506e-06
4.33105e-06
3.76195e-06
2.80855e-06
-0.00792983
-0.0128047
-0.0121168
-0.00810464
2.93902e-06
0.000462862
0.000366248
0.000296992
0.000329748
0.0109842
-0.00956425
0.0218985
-0.0116416
-0.0161354
-0.0166769
-0.0167144
-0.0194016
-0.00017513
-0.000216915
-0.00877645
-0.00718494
-0.00936135
-2.22675e-05
-3.8012e-05
-1.95144e-05
-1.91243e-05
-1.23675e-05
-1.25895e-05
-1.36466e-05
0.000560049
0.000333355
0.000538132
0.000115728
7.4069e-07
6.81853e-07
1.6875e-06
-0.000286779
-0.000230792
-0.000266256
-0.000235296
-0.000397652
-0.000337033
-0.000361548
-0.0302716
0.00749251
-0.0292114
-0.000593051
-0.00077973
-0.000415274
0.000442902
-0.00111528
-0.0055043
-0.00696557
-2.91478e-06
-1.57151e-05
-1.75592e-05
-2.45601e-05
4.39578e-06
-2.56912e-05
-1.38419e-05
-4.72824e-05
-1.04159e-05
0.0528823
0.039646
0.0413393
0.0424723
0.0442739
-0.0140548
-0.00786574
-0.0138167
-0.0139775
-0.00390415
0.000222036
0.000133217
-0.0216792
-0.018738
0.000276444
0.000137847
0.000122098
9.89154e-05
4.0286e-06
3.60455e-06
4.91475e-06
3.5248e-06
2.72915e-06
2.64901e-06
3.05581e-06
1.86205e-06
1.47447e-06
0.00820633
-0.00123682
-0.00139162
-0.00404407
2.48041e-06
3.35781e-06
-0.0143527
-0.010536
-0.0273345
0.00639377
-0.0266751
-0.0536818
-1.11956e-06
0.000860279
0.00060661
0.000923888
0.000707838
-0.0053019
0.00110584
0.00117029
0.000490516
-0.00757929
0.00050235
0.000854315
0.00106815
0.000910747
0.00014107
0.000265401
0.000152315
0.000250588
2.99171e-06
1.83192e-06
3.19221e-06
4.26181e-06
-0.000356289
-0.000164445
-5.43156e-05
-9.58426e-05
0.0148386
-0.00138438
0.00199776
0.00106028
0.0154687
0.00289838
-0.0132562
-0.0142864
-0.00983773
-0.00804128
-9.06251e-05
-6.89561e-05
-1.14966e-05
-1.74748e-05
-8.08016e-06
-1.84939e-05
-9.00844e-06
-1.35526e-05
-8.0666e-06
-0.00470018
-4.79153e-06
-0.0207663
-0.0205942
-0.0278305
-0.0268586
0.00054927
-0.00500042
0.00794934
0.00594147
-0.0157201
0.0135261
-0.00738544
-0.00420598
-0.0089882
-0.0110466
-0.010552
-0.00464164
-0.0162459
-0.0106852
-0.0129837
7.35351e-06
-0.000458619
-0.000304951
-0.00022964
-0.00487368
-0.00598566
-0.0044259
-0.00931302
-2.80006e-07
-6.43265e-07
0.000310558
0.000162
0.000186785
0.000574111
0.000194575
0.0207064
-0.00149185
0.00843089
0.000805227
0.026299
0.0386858
0.0210639
-0.015234
0.0154219
2.85899e-06
-0.0139987
-0.0135606
-0.0136246
-0.0148916
-9.25623e-06
-0.0139945
-0.0143525
-0.00907901
-0.0088868
0.0538735
0.0469498
0.0484519
0.0517592
0.0575887
0.0419871
0.0431194
0.0395227
0.0541193
0.0450451
0.0479205
-0.0163823
-0.00915081
-0.012023
-0.00844877
-0.00678092
-0.0132775
-0.00981232
-0.00723414
-0.0181484
-0.00505363
-0.00175397
-0.00784282
-0.00679086
-0.00692189
-0.00713328
1.68571e-07
4.08521e-07
2.09374e-07
-7.37391e-08
-0.00476407
-0.00783673
-0.00809048
-0.00910806
-0.00823211
-0.00893856
-0.00558755
-1.40434e-05
-7.85775e-06
-3.00482e-06
-2.25992e-06
-4.25452e-06
-3.33611e-06
-2.58229e-06
-0.00616278
-0.00537653
-0.00632987
-0.00553766
0.0547486
0.0443799
0.0414055
0.0493335
0.0500289
0.0467585
0.0366234
0.053928
6.67503e-05
0.000205795
5.04551e-05
-8.66217e-07
-3.80015e-06
-6.53991e-05
-6.70609e-05
-5.71932e-05
-5.0243e-05
-7.55747e-05
-0.000335191
-0.000623591
-0.000335789
-0.000535258
-0.000800908
-0.000884762
-0.000816533
-0.000684274
-0.000649659
-0.000135446
-0.000230498
-0.000199766
-0.000129361
4.40723e-06
-0.00013782
-0.00114628
-0.000434197
-0.00224514
-0.000219715
-7.05236e-05
-0.00476834
-0.00192168
-0.00206295
0.0406216
0.0364534
-0.00551639
-0.00512209
-0.00276732
0.0323953
0.040123
0.0432818
0.0484794
0.0482399
0.036377
0.0269754
0.0276638
0.042164
0.0537574
0.0363856
0.0428611
2.12829e-06
3.83982e-06
2.02686e-06
1.65435e-06
1.70694e-06
3.29181e-06
4.62029e-05
5.75039e-05
3.48796e-05
0.0260092
-0.000447784
-0.000271825
-0.000455922
-0.000476374
0.0224863
1.06705e-05
1.06294e-05
8.93705e-06
2.37158e-05
5.16651e-07
5.39483e-06
5.09453e-06
1.66114e-05
9.42735e-06
4.22418e-06
8.94321e-06
1.62229e-05
2.20691e-05
0.0484037
0.041545
0.0423265
0.0444125
-0.00527074
0.0464847
0.0490442
0.00395591
0.0403706
0.0501459
-1.95496e-06
-1.10509e-06
-9.79796e-07
-1.13816e-06
-1.93898e-06
-1.73678e-06
2.64814e-05
5.50732e-05
5.61352e-05
3.60659e-05
3.81346e-05
1.26651e-05
1.82023e-05
1.11499e-05
0.00340382
0.000267521
-0.000108022
0.000880005
-0.00388301
-0.00613106
-0.00692911
-0.00647474
-0.004308
-0.000418751
-0.00105267
0.0412705
0.0397945
0.0564406
-0.00831752
-0.00571638
-0.00364938
-0.00223497
-0.00497188
-0.00259505
-0.00690801
-0.0115684
-0.00960878
-0.0066856
-0.0133367
1.29596e-05
5.78785e-06
2.2807e-05
-9.31312e-05
-7.56037e-05
-8.29755e-05
-0.00910318
-2.36533e-05
-3.62707e-05
0.0272425
-0.010081
-0.00694537
-0.00909466
-0.00979338
-0.0104388
0.025876
0.0390476
-0.000440521
-0.00694759
-0.0071618
-0.00674168
-1.41023e-05
-8.89996e-06
-1.65247e-05
-5.32125e-06
-1.64716e-05
-5.60679e-06
-1.33946e-05
0.0297987
5.7941e-05
-0.00439263
3.46427e-05
3.19101e-05
0.0209018
0.0266355
-3.26789e-05
-0.0110734
-0.0144189
-0.0109864
-0.0113711
0.0186752
0.0171197
0.0318776
-0.0110096
-5.82885e-06
0.0381468
0.0479327
0.0534008
-4.53745e-06
0.0297933
-0.0128681
0.0198126
0.0223923
-9.10028e-05
-0.000568055
-0.0019142
-0.00114403
-0.000995374
-6.80264e-07
-6.12964e-07
-3.03072e-07
-4.66726e-07
7.39666e-06
3.41792e-06
4.57804e-06
-1.30815e-06
1.63105e-05
-0.0046137
-9.96894e-06
0.0236435
7.53106e-07
1.32333e-06
1.56982e-06
6.62416e-07
9.58569e-07
0.0425262
0.0288605
0.0280479
0.0236713
-0.00562448
3.7918e-06
0.0313823
0.0314858
0.00117474
0.00099899
0.000814455
0.00128766
0.000904353
0.00100485
0.0016925
0.00147729
0.000523928
-0.0283314
0.000698442
0.00041866
0.000444135
0.00185794
0.000187817
0.000595438
0.00111239
-0.000396277
-0.000189826
-0.0128733
-0.0119677
-0.0116496
-0.0136883
-0.00818583
-0.00770388
-0.00819239
0.0338691
0.035582
0.0192977
0.0265795
0.0225834
0.0425769
0.0127359
0.0235292
-0.0158402
-0.0103666
-3.79371e-06
1.19697e-05
7.58729e-06
-2.68602e-06
-1.71428e-05
2.97634e-06
-0.00866601
1.17161e-07
-1.01275e-05
3.08057e-05
5.20375e-05
2.16259e-05
-3.47083e-06
-1.13584e-06
3.91185e-05
-2.11227e-05
-4.20727e-06
-1.73641e-06
-8.88439e-06
8.54901e-05
6.24941e-05
-2.30642e-05
1.16551e-06
4.61641e-06
0.000204874
8.4916e-07
-0.0119286
-0.0174973
2.4082e-06
2.18905e-06
-0.00927171
-0.00986346
-0.011442
-0.00738838
-0.00508492
-0.00616361
-0.0111924
-0.010837
-0.00804959
-3.19329e-05
-5.74393e-05
0.0127455
6.59792e-05
4.22602e-05
2.36165e-05
1.73269e-05
1.5839e-05
-0.00341663
-0.00528382
-0.00358472
-0.00544851
-0.00677453
-0.00561738
-0.0046489
-0.00333377
-0.0051228
-0.000412743
-0.000634366
-0.000587152
-2.9943e-05
-0.000579661
-0.000353444
1.85542e-07
4.49372e-07
5.42556e-07
7.34038e-08
-0.0123431
-0.0136878
-0.0123922
-0.00932791
-0.00887527
-0.0121991
-0.00945645
-0.00875146
-0.0126958
-0.0103494
-0.0183746
-0.00695384
-0.0118032
-0.0101223
-0.00708098
-0.0114123
-0.00718692
0.00271492
0.00402353
0.00153738
-4.80614e-05
-0.000151249
-6.17713e-05
-9.8888e-05
-0.000833602
-0.000901214
0.000666394
-0.00171249
0.0018912
0.000812239
-0.00414199
-0.00308275
-2.63823e-06
-2.34656e-06
-9.16091e-06
-5.23462e-06
-4.6414e-06
-3.77915e-06
-5.14981e-06
0.000106605
0.000580349
0.000162399
1.0604e-05
-0.000883979
-0.000474797
-0.00116368
-0.000691552
-0.000394147
-0.00664068
-0.00544133
-3.22481e-06
-1.93478e-06
-3.14267e-06
-0.0144826
-0.000553983
-0.00559057
-0.00552625
-0.000336875
-0.000502477
-0.000397092
-0.00522027
2.34532e-07
-4.1863e-07
3.60571e-06
8.42286e-06
-0.00670882
-0.00625958
-0.00773111
-0.00750837
-0.000499157
-0.000474395
-0.0135546
-0.0130638
-0.0149031
-0.0154464
-0.0144022
-0.0147849
-0.00490307
-0.00403521
-0.0068536
-0.00830407
-0.00865721
-0.0104634
-0.00917601
4.91612e-07
2.68152e-06
5.94676e-06
-0.000153244
0.000135776
7.91116e-05
-0.000117529
-7.99572e-05
0.0015935
0.0019498
0.000658197
0.0014318
0.000704461
-0.00536054
1.44963e-06
8.43211e-07
1.68095e-06
1.61947e-06
-6.09906e-05
-2.59921e-05
0.000103413
5.43738e-05
-0.0103875
-0.00732613
0.000689544
-0.00535721
0.000334244
0.000646897
3.4683e-06
2.64829e-06
2.10295e-06
2.69152e-06
-0.0132708
-0.00991207
1.19375e-05
4.56126e-05
-0.01102
-0.0167473
-0.0052463
2.17707e-07
-0.0107365
-0.0133218
-0.016527
3.2326e-07
3.10169e-07
-7.4359e-08
-2.10162e-07
-0.0114896
-0.0118832
-0.0116957
-0.00791753
-0.0106198
-0.0119059
-0.00790821
0.000127311
0.000132675
0.000228023
-0.00458532
0.00294664
-1.1085e-05
-0.00516214
-0.00874507
-0.00285197
-0.0106183
-0.00682133
-0.00684822
-4.80459e-05
0.0376855
0.0291799
-0.00491606
-0.00315771
-0.00271824
-0.00654432
-0.00540268
-0.00571016
-0.00413353
-0.0031159
-0.00388585
-0.00468608
-0.00811013
-0.00707387
-0.00513402
-0.00894285
-0.00893396
-0.00700952
-2.91388e-07
2.7712e-06
-2.67079e-06
-6.66342e-06
-0.00581288
-0.00513138
-0.00450468
-0.00608955
0.0542299
-0.00862285
-0.00513589
-0.00619525
-0.0120533
0.0529341
0.000206546
-1.83316e-08
2.05941e-06
2.55458e-06
2.52181e-07
4.28532e-06
1.19872e-05
1.02565e-05
0.0381072
5.34007e-06
3.75923e-07
2.10069e-06
2.73267e-06
2.27964e-06
3.43275e-06
1.3278e-06
1.88249e-06
-1.28585e-06
-9.45208e-07
-0.000331982
-0.000268759
-0.000270333
2.75494e-07
-3.89827e-07
0.00033602
0.000355923
-0.000490837
-0.000645939
-0.0107719
0.0206476
2.27863e-06
0.000100736
0.000102734
0.000157906
-7.5764e-05
5.83506e-06
1.3065e-05
1.9166e-06
5.54297e-05
0.000106127
-0.0105527
-0.0103419
-0.01609
0.0341866
0.0274817
0.0110251
0.0239094
0.00784551
-3.165e-06
-3.80744e-06
-2.70138e-06
-0.00371637
-0.00341274
-0.00831225
-5.88689e-07
-0.00404782
-0.0096964
-0.0138065
-0.0108185
-0.00955827
-0.0110368
-0.00983639
-0.0130997
-0.0132645
-0.0131948
-0.0124072
-0.0121104
-0.0119864
-0.0140232
-0.0142888
-0.00978856
-0.0142666
-0.0108672
-0.0112458
-0.0139857
-0.00787413
-0.00966593
-0.00901018
-0.00986512
-0.0122536
-0.00872514
-0.00409482
-0.00402103
-0.00234588
-0.00279671
0.000145779
0.000283158
-0.0137476
-0.0124978
-0.0125473
-0.0128579
2.66285e-05
0.000161703
5.29282e-05
-9.12903e-07
-0.0125272
-0.00607896
-0.000103185
-4.70045e-05
-3.90486e-05
-9.06725e-05
-2.47193e-05
1.30897e-06
-0.0113253
-0.0096719
-0.0583608
-3.20628e-06
-0.0105807
-0.00918508
-0.0119583
-0.00793149
-0.00927812
-0.00904792
-0.0136035
-0.00812013
-0.0137546
-0.0133573
-0.0128558
-0.00856304
-0.00837145
-0.00785844
-0.00873166
0.00051235
-0.0152105
-0.0171048
-0.00874278
-0.0100597
-0.00982523
-0.00895782
-0.0215113
-0.0260388
-0.0156566
-0.00717709
-0.00221718
-0.00460279
0.0192945
-0.0162436
-0.0101952
-0.0130749
-0.0087517
-0.0142957
-7.66437e-06
-8.84898e-06
-9.04372e-06
0.000339228
-0.0158577
-0.00883492
-0.0117169
-0.0110208
-0.00917248
-0.0143842
-0.0152578
-0.0152539
-0.0164129
-0.0153598
0.0433583
0.0287689
0.0325135
0.02508
0.00890482
0.0187774
0.0436858
0.0546411
-0.00140955
-0.000857649
-0.000592189
-0.000253146
-0.000642972
-0.000367492
-0.00819117
-0.00642578
-1.32401e-05
-2.48649e-06
-0.0078783
-0.00856598
-0.0049405
-0.00566521
-0.00380529
-0.00369523
-0.00470234
-0.00900252
-0.00115594
-0.00175247
0.000144163
7.10967e-05
-0.0137866
-0.0133121
-0.0133947
-0.00941638
-0.00835514
-0.0078376
-0.0141717
-0.0165145
-0.0146049
-0.0126884
0.0438448
-0.00220431
0.0262637
0.0223097
-3.14034e-05
1.07327e-06
6.99752e-05
-0.000169301
-8.71863e-05
8.46413e-06
2.25426e-06
-0.0160094
-0.0152755
-6.09114e-05
-6.43722e-05
-0.000164803
-0.000327655
-0.000394122
-0.000297511
0.000172054
6.47581e-07
0.0301053
-1.79329e-05
-3.29255e-05
2.78806e-05
1.46455e-05
6.30896e-06
0.0290279
-9.3634e-06
6.93241e-06
2.24521e-05
2.36351e-05
-0.0312686
-0.00086316
-0.00343209
1.2962e-06
-0.00338977
-0.000186343
-0.00524401
0.000868376
-0.00413074
-0.00362348
-0.00403461
-0.000395006
0.0020751
-0.000212242
0.000300744
-0.000102928
-1.27305e-06
-7.65591e-07
2.62807e-06
-0.000887634
-0.00196574
-0.00752916
-3.44859e-07
7.46106e-07
6.03759e-06
0.0258646
0.0239604
-0.00224682
-0.00388829
3.0178e-05
2.11097e-05
1.03899e-05
-0.00514198
-0.00568814
-0.0160278
-0.0105265
-0.0128764
-0.015625
-0.0126585
-0.00846308
-0.0135343
-0.00332849
-0.0053821
0.05353
0.0268501
-0.0167686
2.03059e-06
-0.00213786
-0.00950237
0.000220164
0.000128016
0.000217711
0.000137622
1.61471e-06
6.30756e-07
-0.0103763
2.16027e-06
7.66016e-06
1.19136e-05
-0.00494266
-0.00427184
-0.0231216
0.0233826
3.37321e-05
2.41032e-05
-0.000100301
-6.52617e-05
0.025564
-0.00722366
-0.011771
-0.00323724
-0.0124057
-0.0108262
-0.0100864
-0.00429135
-0.00765234
-0.0114221
-0.0141813
-0.0154792
-0.012645
-0.0174164
-0.0162181
-0.0121835
-0.00859595
-0.00846414
-0.00903694
0.000367125
-0.0141015
-0.014117
-0.00627138
-0.00699956
0.01667
6.98207e-05
0.0223914
-2.4633e-05
0.029296
3.36387e-06
0.00938196
-0.00353191
-0.00676322
-0.00491292
0.0184107
-3.07428e-07
0.00227249
-0.00363964
-0.00166352
0.000342415
-0.000416393
-0.000416449
-0.000309041
-0.00308432
-3.50037e-05
-5.53078e-05
-1.00187e-05
7.85786e-07
1.87407e-06
3.26129e-06
-0.00760516
6.01953e-06
1.09891e-05
1.94923e-05
2.57843e-06
-0.000149647
-0.00730295
-0.00754577
-0.00909018
4.25505e-07
-3.21411e-05
-0.000127504
-6.43462e-05
2.59746e-05
0.000360672
0.0521877
-0.0159317
-0.00309361
-0.00251016
-0.0101033
-0.0104934
-0.012647
-0.00641283
-0.00956552
-0.00948797
-0.00987505
-0.00966492
-0.000503795
-9.59217e-06
0.000105048
-0.00474103
-0.00475466
-0.0121519
-0.0114018
-0.00628896
-0.000222006
-0.00404534
0.000464555
-0.00670299
1.64129e-06
0.0291248
-0.00608952
-0.0103071
0.0302862
0.0644806
0.0522443
-0.0237122
-0.0330193
-0.00480007
-0.00151226
-0.000301624
-0.000421106
-0.00606098
-0.00197188
-1.96214e-06
-0.00661743
-0.00706133
-0.00624235
4.82122e-07
-0.00335541
-0.00553328
-1.28343e-06
-6.52144e-07
-0.0159172
0.0555279
2.59363e-06
0.000162334
1.36696e-05
-6.4622e-06
-5.56581e-06
5.95669e-07
1.66642e-06
-0.00225931
-0.00150306
-2.00202e-06
-4.59559e-07
-9.23113e-07
-2.56233e-06
4.29547e-07
0.00706755
-0.000144793
-0.000477653
-0.000404924
-0.0059416
-0.00316571
-0.00567528
-4.65953e-05
-0.000102838
-0.000140807
-0.000117568
0.000161375
8.75114e-05
-3.53241e-05
1.28355e-05
0.0252142
7.92679e-08
-0.00126318
-0.00195522
-0.00160321
2.23855e-06
-1.12632e-06
3.07572e-07
0.00119524
-0.0264495
1.1503e-06
1.35136e-06
-1.00712e-06
-7.52958e-07
1.11026e-06
-0.00739066
-0.00734099
0.0334716
0.0573884
1.81653e-06
-0.0149664
-0.00906108
1.37131e-06
1.51819e-06
1.86543e-06
-0.000199314
-0.00710819
-0.000185947
-0.000179949
1.14072e-06
-0.00556381
-2.67788e-05
-0.000233594
-0.00525037
-0.00553298
3.02789e-06
1.27646e-05
-0.000228038
-0.000446792
-0.00069239
-0.000569084
-0.00687622
-0.000819639
-0.00631519
-0.00706944
-0.00745551
-0.00691645
0.0297976
1.89438e-06
2.36107e-06
2.0232e-06
1.65396e-06
0.00785376
-0.0118109
-0.0076497
-2.24093e-06
-0.0112786
-0.00442683
-0.00544352
6.31312e-05
-1.35814e-06
-0.000196142
-0.000439636
-0.000109192
-2.2606e-05
-0.000369312
-0.0263797
-0.0217116
7.43259e-06
-0.0440946
-0.0210679
-0.0116583
-0.00426874
-0.00673208
-0.003521
5.51332e-06
1.4273e-05
-0.0105518
-0.01029
0.0212968
-0.00703439
-0.00744343
-0.00473218
-0.00360848
-0.00489038
0.0254387
0.0256956
0.0435591
0.0218785
-0.000169493
0.0336828
-4.56654e-05
0.0167932
-0.000106492
0.0229206
0.0560339
0.0351508
0.0573728
-0.000186035
-0.000202134
-0.00957944
-0.000279571
2.56512e-05
-0.000168648
4.83328e-05
-7.61381e-05
-0.00463021
-0.0141338
-0.0233561
-0.0207221
2.45769e-05
-1.08529e-05
-0.00728999
-0.00425667
-7.0666e-06
-0.000177207
-0.000129607
-7.58737e-05
0.000157641
1.29309e-06
0.0419631
0.0199419
-0.0141533
-0.0098391
-0.0070802
-0.0082671
5.64284e-06
-8.6871e-07
-0.00403382
-0.00910801
-0.00559871
-5.86596e-07
-2.99133e-06
-5.12518e-06
-6.41284e-06
-2.74394e-06
8.9373e-05
7.48758e-05
-8.97064e-07
9.61318e-07
8.57291e-06
0.000229051
2.28279e-05
-9.57764e-05
-0.00596382
-0.00870736
-3.02637e-06
-4.60481e-06
0.00290178
5.38273e-05
-0.00531891
-0.007332
-0.00374505
-0.00251341
-0.000190877
-0.00583822
-0.00831898
-1.6099e-05
1.59811e-06
-0.000402183
4.14886e-05
0.000103635
-0.000215842
0.0334118
0.0505962
0.0300363
0.04688
-0.00344358
-0.00707275
-0.00518265
-0.000145959
-0.000720906
-9.15626e-05
-0.00943261
-0.00178852
-0.000491004
-0.000570713
-0.00824923
-0.0109501
-0.00726915
-0.000210099
-0.00899803
0.000377518
0.00112309
-0.000137184
-1.34042e-05
-0.0188574
-0.000215458
1.26342e-05
-0.00323218
-0.00800332
-0.00775012
-0.00533847
-0.00797614
-0.00859234
7.47621e-07
7.18636e-06
-0.0078446
-0.0102013
-0.0100483
-2.27932e-06
-0.00936288
-0.000211569
-5.47939e-07
-0.0140389
-0.00520111
-0.00891313
-0.00506985
-0.00554342
-0.00578173
-9.79047e-07
-2.31839e-07
-6.05162e-07
-0.00443466
-0.0064022
-8.59425e-07
-0.0263184
-1.45291e-07
-1.12401e-06
-0.00651861
0.0455223
-0.0449129
-8.66051e-07
-1.17273e-06
0.000219791
-0.00808173
-0.00813546
-0.0129029
-0.0107004
-0.000380234
-0.000357316
-0.000341208
-0.00980913
-0.0011593
-0.0262279
-0.0172018
-0.0116611
-0.00457021
-0.00416243
-0.0166466
-0.0572715
-0.00025288
-1.05903e-06
1.64463e-06
-3.31266e-06
-2.20231e-06
-0.00360071
-0.0043379
-0.00804118
0.00150457
1.87919e-06
1.51988e-05
1.96737e-07
-1.42975e-06
-0.00882795
-0.0113896
-0.0183299
-0.0163973
-1.21624e-06
-6.49386e-06
-4.60924e-05
-0.0044716
-0.00364891
-0.000285789
-3.39036e-06
-0.00156391
3.78968e-05
1.39776e-06
0.000361755
-0.00886285
-0.0104767
-0.0100242
-0.00504759
-1.01202e-05
-0.000172056
-0.00821574
-0.00987842
-0.0102772
-0.00193887
-0.00816908
-0.00692887
0.0233099
0.0199378
-0.00700923
-1.74944e-06
-1.53796e-08
-0.0101219
-0.00704499
-0.0174214
0.0251392
0.0469366
-0.0119163
-0.023253
-0.0204425
-0.00704464
-0.00974038
-0.00857467
8.26736e-07
0.0245574
0.025821
0.0151225
0.0315752
0.0230258
0.025092
0.02689
-4.09508e-06
2.2274e-06
-0.00023794
-0.00738776
-0.0073778
-4.68832e-06
-0.0110689
-0.0105169
-0.0138743
-0.0202178
0.0011876
-0.00917091
-0.00931237
-0.0224818
0.000644372
-0.0117877
-0.0113447
-0.00487069
-0.004519
-0.00970973
-0.0118383
-0.0112927
-0.0226257
0.0192566
0.0261544
0.0203061
0.0437895
0.0102102
0.0104453
0.0124195
0.0100436
-0.0108056
0.0517333
0.0247963
0.000873294
0.0420658
0.0554282
0.000198674
0.0665728
0.074955
0.0733151
0.0242794
-0.00841196
-0.00658582
-0.00790614
-0.00661253
0.040193
0.0516543
-0.0205859
-0.0123893
-0.00402527
-0.0630803
0.0654458
-0.00710052
-0.00538945
-0.00370058
-0.00528925
-4.60218e-05
-0.00427395
-0.0213865
-0.00711483
0.0405211
-0.00678758
-0.0104517
-0.00658278
0.0537926
-0.0048635
-0.0134587
-0.0166334
0.0386476
-0.00729054
-0.00227523
-0.0123777
0.0398624
-0.00872174
0.0199934
-0.00018923
-0.0104644
0.0497765
-0.0147441
-0.0118974
-6.6536e-06
-0.000229271
-0.0176043
0.029925
-0.0292736
-0.00732874
0.00896395
-0.00683478
0.0583388
0.041219
0.0342977
0.0657216
0.0511384
0.0641771
0.0642003
0.0376218
0.044965
0.0307827
-0.00557802
-0.0225739
-0.0107046
-0.0124842

SCALARS S_Mises double 1
LOOKUP_TABLE  table11
8.49591e-33
8.49591e-33
0.145776
0.13049
8.49591e-33
8.49591e-33
8.49591e-33
0.083709
8.49591e-33
8.49591e-33
8.49591e-33
0.108802
8.49591e-33
8.49591e-33
8.49591e-33
8.49591e-33
8.49591e-33
0.0231316
0.0479833
8.49591e-33
8.49591e-33
0.0161572
8.49591e-33
8.49591e-33
8.49591e-33
0.0270931
8.49591e-33
8.49591e-33
5.3263e-06
8.10139e-06
6.91976e-06
5.16386e-06
1.05212e-06
1.53074e-06
0.000117235
9.81196e-05
0.00384902
0.00313366
0.000336666
0.000242204
1.53235e-06
1.25791e-06
0.0165047
0.0161438
8.49591e-33
8.49591e-33
8.49591e-33
8.49591e-33
8.49591e-33
8.49591e-33
8.49591e-33
8.49591e-33
8.49591e-33
8.49591e-33
8.49591e-33
8.49591e-33
8.49591e-33
8.49591e-33
8.49591e-33
8.49591e-33
8.49591e-33
8.49591e-33
8.49591e-33
8.49591e-33
8.49591e-33
8.49591e-33
0.138794
0.135812
0.138345
0.144572
0.150621
0.157601
0.1705
0.175558
0.159502
0.149361
0.153165
0.144858
0.14427
0.13701
8.49591e-33
8.49591e-33
8.49591e-33
8.49591e-33
8.49591e-33
8.49591e-33
8.49591e-33
8.49591e-33
8.49591e-33
8.49591e-33
8.49591e-33
8.49591e-33
8.49591e-33
8.49591e-33
8.49591e-33
8.49591e-33
8.49591e-33
8.49591e-33
8.49591e-33
8.49591e-33
8.49591e-33
8.49591e-33
8.49591e-33
8.49591e-33
8.49591e-33
8.49591e-33
8.49591e-33
8.49591e-33
8.49591e-33
8.49591e-33
8.49591e-33
8.49591e-33
8.49591e-33
8.49591e-33
8.49591e-33
0.0907376
0.0897315
0.0930978
0.120708
0.0897934
0.0717117
8.49591e-33
8.49591e-33
8.49591e-33
8.49591e-33
8.49591e-33
8.49591e-33
8.49591e-33
8.49591e-33
8.49591e-33
8.49591e-33
8.49591e-33
8.49591e-33
8.49591e-33
8.49591e-33
8.49591e-33
8.49591e-33
8.49591e-33
8.49591e-33
8.49591e-33
8.49591e-33
8.49591e-33
8.49591e-33
8.49591e-33
8.49591e-33
8.49591e-33
8.49591e-33
8.49591e-33
8.49591e-33
8.49591e-33
8.49591e-33
8.49591e-33
8.49591e-33
8.49591e-33
8.49591e-33
8.49591e-33
8.49591e-33
8.49591e-33
8.49591e-33
8.49591e-33
8.49591e-33
8.49591e-33
8.49591e-33
8.49591e-33
8.49591e-33
8.49591e-33
8.49591e-33
8.49591e-33
8.49591e-33
8.49591e-33
8.49591e-33
0.112139
0.122803
0.119981
0.124849
0.122095
0.119762
0.125758
0.127645
0.116878
0.114522
0.113522
0.1055
0.106604
0.089579
8.49591e-33
8.49591e-33
8.49591e-33
8.49591e-33
8.49591e-33
8.49591e-33
8.49591e-33
8.49591e-33
8.49591e-33
8.49591e-33
8.49591e-33
8.49591e-33
8.49591e-33
8.49591e-33
8.49591e-33
8.49591e-33
8.49591e-33
8.49591e-33
8.49591e-33
8.49591e-33
8.49591e-33
8.49591e-33
8.49591e-33
8.49591e-33
8.49591e-33
8.49591e-33
8.49591e-33
8.49591e-33
8.49591e-33
8.49591e-33
8.49591e-33
8.49591e-33
8.49591e-33
8.49591e-33
8.49591e-33
8.49591e-33
8.49591e-33
8.49591e-33
8.49591e-33
8.49591e-33
8.49591e-33
8.49591e-33
8.49591e-33
8.49591e-33
8.49591e-33
0.0167346
0.0144308
0.0145238
0.0143167
0.0140931
0.013346
0.0131127
0.0143522
0.0153168
0.0188218
0.0232856
0.0274447
0.0328587
0.037407
8.49591e-33
8.49591e-33
8.49591e-33
8.49591e-33
8.49591e-33
8.49591e-33
8.49591e-33
8.49591e-33
8.49591e-33
8.49591e-33
8.49591e-33
8.49591e-33
8.49591e-33
8.49591e-33
8.49591e-33
8.49591e-33
8.49591e-33
8.49591e-33
8.49591e-33
8.49591e-33
8.49591e-33
8.49591e-33
8.49591e-33
8.49591e-33
8.49591e-33
8.49591e-33
8.49591e-33
8.49591e-33
8.49591e-33
8.49591e-33
8.49591e-33
8.49591e-33
8.49591e-33
8.49591e-33
8.49591e-33
8.49591e-33
8.49591e-33
8.49591e-33
8.49591e-33
8.49591e-33
8.49591e-33
8.49591e-33
8.49591e-33
8.49591e-33
8.49591e-33
8.49591e-33
8.49591e-33
8.49591e-33
8.49591e-33
0.0153174
0.0168693
0.018127
0.0335849
0.0285947
0.0236396
8.49591e-33
8.49591e-33
8.49591e-33
8.49591e-33
8.49591e-33
8.49591e-33
8.49591e-33
8.49591e-33
8.49591e-33
8.49591e-33
8.49591e-33
8.49591e-33
8.49591e-33
8.49591e-33
8.49591e-33
8.49591e-33
8.49591e-33
8.49591e-33
8.49591e-33
8.49591e-33
8.49591e-33
8.49591e-33
8.49591e-33
8.49591e-33
8.49591e-33
8.49591e-33
8.49591e-33
8.49591e-33
8.49591e-33
8.49591e-33
8.49591e-33
8.49591e-33
8.49591e-33
8.49591e-33
8.49591e-33
0.0222101
0.0203017
0.0200141
0.0178003
0.0156574
0.0124121
0.0089813
0.0071608
0.00687013
0.0078438
0.00828189
0.011167
0.0132316
0.0137032
8.49591e-33
8.49591e-33
8.49591e-33
8.49591e-33
8.49591e-33
8.49591e-33
8.49591e-33
8.49591e-33
8.49591e-33
8.49591e-33
8.49591e-33
8.49591e-33
8.49591e-33
8.49591e-33
8.49591e-33
8.49591e-33
8.49591e-33
8.49591e-33
8.49591e-33
8.49591e-33
8.49591e-33
8.49591e-33
5.09299e-06
5.09063e-06
5.00064e-06
6.02419e-06
6.62864e-06
6.40184e-06
6.97051e-06
5.73272e-06
4.01282e-06
4.11672e-06
5.29531e-06
5.2965e-06
5.21004e-06
5.00859e-06
4.71137e-06
4.67035e-06
4.6869e-06
4.83689e-06
6.39554e-06
8.88369e-06
9.00884e-06
6.568e-06
2.66271e-06
4.1721e-06
3.9409e-06
2.31327e-06
1.95112e-06
4.20699e-06
5.39108e-06
5.31682e-06
4.24762e-06
2.2626e-06
2.322e-06
7.10988e-06
1.82861e-05
6.3401e-05
7.87202e-05
8.17482e-05
7.32453e-05
7.74173e-05
3.36548e-05
1.22508e-05
4.63286e-06
2.25023e-06
0.00018519
0.000279708
0.000459935
0.00096954
0.002746
0.00278187
0.00146666
0.00126096
0.00225127
0.00168505
0.000708835
0.000340229
0.00023712
0.000181232
0.00328096
0.00196092
0.00097217
0.000467255
0.000256382
0.000227319
0.000228612
0.000169396
0.000346931
0.000920761
0.00173068
0.00285861
0.000524598
0.000903684
0.00201664
0.00451424
0.0129921
0.0199025
0.00477253
0.0017988
0.00120715
0.000855816
0.000665386
0.000468768
0.000333748
0.000241627
0.00017284
0.000117538
8.24911e-05
5.99597e-05
3.93126e-05
3.31685e-05
2.32168e-05
1.78238e-05
1.26037e-05
7.60853e-06
3.41189e-06
1.94482e-06
4.97484e-06
8.23143e-06
9.2689e-06
1.12135e-05
1.23294e-05
1.28063e-05
1.18815e-05
1.01951e-05
2.03632e-06
4.43362e-06
6.92369e-06
8.14591e-06
9.38799e-06
1.00459e-05
9.64765e-06
9.30214e-06
7.9848e-06
2.87167e-06
4.5618e-06
4.56565e-06
2.75009e-06
2.80826e-06
4.80008e-06
9.75959e-06
1.27795e-05
1.85308e-05
2.70283e-05
4.03659e-05
5.64666e-05
7.94625e-05
0.000119565
0.000169657
0.000247502
0.0003526
0.000515265
0.000727286
0.00100986
0.00140306
0.00194614
0.00252679
0.00330321
0.00504774
0.00746744
0.0118521
0.0164406
0.0213067
0.0260632
0.0303417
0.0346957
0.0398237
0.0440831
0.0474441
0.0564494
0.0604245
0.0643412
0.0674378
0.064266
0.0628304
0.0551642
0.0341963
0.0116957
0.0145213
0.0171356
0.0146476
0.0167821
0.0173976
0.018179
0.0178765
0.0164243
0.0168413
0.0182608
0.0184666
0.0159141
0.0184303
0.0277336
0.051783
0.0627824
0.0657165
0.0636741
0.0597847
0.0547901
0.0499721
0.0427434
0.0372878
0.0327479
0.0291702
0.0245263
0.0207565
0.015064
0.0107613
0.0070987
0.00433041
0.00233543
0.00186331
0.00189875
0.0015738
0.00111856
0.000560563
0.144101
0.101848
0.0642045
0.0336536
0.029629
0.0576544
0.085345
0.113908
0.0975902
0.0573773
0.0489166
0.0458479
0.0421506
0.037778
0.0335039
0.0292046
0.0258336
0.0254977
0.048975
0.0344108
0.034894
0.0382202
0.0422556
0.0462958
0.053783
0.0602072
0.0691314
0.0961066
8.49591e-33
8.49591e-33
8.49591e-33
8.49591e-33
8.49591e-33
8.49591e-33
8.49591e-33
8.49591e-33
8.49591e-33
8.49591e-33
8.49591e-33
8.49591e-33
8.49591e-33
8.49591e-33
8.49591e-33
8.49591e-33
8.49591e-33
8.49591e-33
8.49591e-33
8.49591e-33
8.49591e-33
8.49591e-33
8.49591e-33
8.49591e-33
8.49591e-33
8.49591e-33
8.49591e-33
8.49591e-33
8.49591e-33
8.49591e-33
8.49591e-33
8.49591e-33
8.49591e-33
8.49591e-33
8.49591e-33
8.49591e-33
8.49591e-33
8.49591e-33
8.49591e-33
8.49591e-33
8.49591e-33
8.49591e-33
8.49591e-33
8.49591e-33
8.49591e-33
8.49591e-33
8.49591e-33
8.49591e-33
8.49591e-33
8.49591e-33
8.49591e-33
8.49591e-33
8.49591e-33
8.49591e-33
8.49591e-33
8.49591e-33
8.49591e-33
8.49591e-33
8.49591e-33
8.49591e-33
8.49591e-33
8.49591e-33
8.49591e-33
8.49591e-33
8.49591e-33
8.49591e-33
8.49591e-33
8.49591e-33
8.49591e-33
8.49591e-33
8.49591e-33
8.49591e-33
8.49591e-33
8.49591e-33
8.49591e-33
8.49591e-33
8.49591e-33
8.49591e-33
8.49591e-33
8.49591e-33
8.49591e-33
8.49591e-33
8.49591e-33
8.49591e-33
8.49591e-33
8.49591e-33
8.49591e-33
8.49591e-33
8.49591e-33
8.49591e-33
8.49591e-33
8.49591e-33
8.49591e-33
8.49591e-33
8.49591e-33
8.49591e-33
8.49591e-33
8.49591e-33
8.49591e-33
8.49591e-33
8.49591e-33
8.49591e-33
8.49591e-33
8.49591e-33
8.49591e-33
8.49591e-33
8.49591e-33
8.49591e-33
8.49591e-33
8.49591e-33
8.49591e-33
8.49591e-33
8.49591e-33
8.49591e-33
8.49591e-33
8.49591e-33
8.49591e-33
8.49591e-33
8.49591e-33
8.49591e-33
8.49591e-33
8.49591e-33
8.49591e-33
8.49591e-33
8.49591e-33
8.49591e-33
8.49591e-33
8.49591e-33
8.49591e-33
8.49591e-33
8.49591e-33
8.49591e-33
8.49591e-33
8.49591e-33
8.49591e-33
8.49591e-33
8.49591e-33
8.49591e-33
8.49591e-33
8.49591e-33
8.49591e-33
8.49591e-33
8.49591e-33
8.49591e-33
8.49591e-33
8.49591e-33
8.49591e-33
8.49591e-33
8.49591e-33
8.49591e-33
8.49591e-33
8.49591e-33
8.49591e-33
8.49591e-33
8.49591e-33
8.49591e-33
8.49591e-33
8.49591e-33
8.49591e-33
8.49591e-33
8.49591e-33
8.49591e-33
8.49591e-33
8.49591e-33
8.49591e-33
8.49591e-33
8.49591e-33
8.49591e-33
8.49591e-33
8.49591e-33
8.49591e-33
8.49591e-33
8.49591e-33
8.49591e-33
8.49591e-33
8.49591e-33
8.49591e-33
8.49591e-33
8.49591e-33
8.49591e-33
8.49591e-33
8.49591e-33
8.49591e-33
8.49591e-33
8.49591e-33
8.49591e-33
8.49591e-33
8.49591e-33
8.49591e-33
8.49591e-33
8.49591e-33
8.49591e-33
8.49591e-33
8.49591e-33
8.49591e-33
8.49591e-33
8.49591e-33
8.49591e-33
8.49591e-33
8.49591e-33
8.49591e-33
8.49591e-33
8.49591e-33
8.49591e-33
8.49591e-33
8.49591e-33
8.49591e-33
8.49591e-33
8.49591e-33
8.49591e-33
8.49591e-33
8.49591e-33
8.49591e-33
8.49591e-33
8.49591e-33
8.49591e-33
8.49591e-33
8.49591e-33
8.49591e-33
8.49591e-33
8.49591e-33
8.49591e-33
8.49591e-33
8.49591e-33
8.49591e-33
8.49591e-33
8.49591e-33
8.49591e-33
8.49591e-33
8.49591e-33
8.49591e-33
8.49591e-33
8.49591e-33
8.49591e-33
8.49591e-33
8.49591e-33
8.49591e-33
8.49591e-33
8.49591e-33
8.49591e-33
8.49591e-33
8.49591e-33
8.49591e-33
8.49591e-33
8.49591e-33
8.49591e-33
8.49591e-33
8.49591e-33
8.49591e-33
8.49591e-33
8.49591e-33
8.49591e-33
8.49591e-33
8.49591e-33
8.49591e-33
8.49591e-33
8.49591e-33
8.49591e-33
8.49591e-33
8.49591e-33
8.49591e-33
8.49591e-33
8.49591e-33
8.49591e-33
8.49591e-33
8.49591e-33
8.49591e-33
8.49591e-33
8.49591e-33
8.49591e-33
8.49591e-33
8.49591e-33
8.49591e-33
8.49591e-33
8.49591e-33
8.49591e-33
8.49591e-33
8.49591e-33
8.49591e-33
8.49591e-33
8.49591e-33
8.49591e-33
8.49591e-33
8.49591e-33
8.49591e-33
8.49591e-33
8.49591e-33
8.49591e-33
8.49591e-33
8.49591e-33
8.49591e-33
8.49591e-33
8.49591e-33
8.49591e-33
0.0549727
0.0636524
0.0715763
0.0746106
0.0683942
0.0719495
0.0795927
0.0814329
0.0821172
0.0683769
0.0755938
0.0761139
0.0694368
0.0785807
0.0529406
0.0442042
0.0490498
0.0476608
0.036926
0.0308439
0.0273632
0.0355354
0.0294039
0.0293681
0.0316029
0.0363874
0.0464143
0.0582644
0.0979742
0.0847836
0.0875067
0.0915851
0.0898034
0.0900004
0.097573
0.0975172
0.0951108
0.0829901
0.0874209
0.086716
0.0822863
0.0837443
8.49591e-33
8.49591e-33
8.49591e-33
8.49591e-33
8.49591e-33
8.49591e-33
8.49591e-33
8.49591e-33
8.49591e-33
8.49591e-33
8.49591e-33
8.49591e-33
8.49591e-33
8.49591e-33
8.49591e-33
8.49591e-33
8.49591e-33
8.49591e-33
8.49591e-33
8.49591e-33
8.49591e-33
8.49591e-33
8.49591e-33
8.49591e-33
8.49591e-33
8.49591e-33
8.49591e-33
8.49591e-33
8.49591e-33
8.49591e-33
8.49591e-33
8.49591e-33
8.49591e-33
8.49591e-33
8.49591e-33
8.49591e-33
8.49591e-33
8.49591e-33
8.49591e-33
8.49591e-33
8.49591e-33
8.49591e-33
8.49591e-33
8.49591e-33
8.49591e-33
8.49591e-33
8.49591e-33
8.49591e-33
8.49591e-33
8.49591e-33
8.49591e-33
8.49591e-33
8.49591e-33
8.49591e-33
8.49591e-33
8.49591e-33
8.49591e-33
8.49591e-33
8.49591e-33
8.49591e-33
8.49591e-33
8.49591e-33
8.49591e-33
8.49591e-33
8.49591e-33
8.49591e-33
8.49591e-33
8.49591e-33
8.49591e-33
8.49591e-33
8.49591e-33
8.49591e-33
8.49591e-33
8.49591e-33
8.49591e-33
8.49591e-33
8.49591e-33
8.49591e-33
8.49591e-33
8.49591e-33
8.49591e-33
8.49591e-33
8.49591e-33
8.49591e-33
8.49591e-33
8.49591e-33
8.49591e-33
8.49591e-33
8.49591e-33
8.49591e-33
8.49591e-33
8.49591e-33
8.49591e-33
8.49591e-33
8.49591e-33
8.49591e-33
8.49591e-33
8.49591e-33
8.49591e-33
8.49591e-33
8.49591e-33
8.49591e-33
8.49591e-33
8.49591e-33
8.49591e-33
8.49591e-33
8.49591e-33
8.49591e-33
8.49591e-33
8.49591e-33
8.49591e-33
8.49591e-33
8.49591e-33
8.49591e-33
8.49591e-33
8.49591e-33
8.49591e-33
8.49591e-33
8.49591e-33
8.49591e-33
8.49591e-33
8.49591e-33
8.49591e-33
8.49591e-33
8.49591e-33
8.49591e-33
8.49591e-33
8.49591e-33
8.49591e-33
8.49591e-33
8.49591e-33
8.49591e-33
8.49591e-33
8.49591e-33
8.49591e-33
8.49591e-33
8.49591e-33
8.49591e-33
8.49591e-33
8.49591e-33
8.49591e-33
8.49591e-33
8.49591e-33
8.49591e-33
8.49591e-33
8.49591e-33
8.49591e-33
8.49591e-33
8.49591e-33
8.49591e-33
8.49591e-33
8.49591e-33
8.49591e-33
8.49591e-33
8.49591e-33
8.49591e-33
8.49591e-33
8.49591e-33
8.49591e-33
8.49591e-33
8.49591e-33
8.49591e-33
8.49591e-33
8.49591e-33
8.49591e-33
8.49591e-33
8.49591e-33
8.49591e-33
8.49591e-33
8.49591e-33
8.49591e-33
8.49591e-33
8.49591e-33
8.49591e-33
8.49591e-33
8.49591e-33
8.49591e-33
8.49591e-33
8.49591e-33
8.49591e-33
8.49591e-33
8.49591e-33
8.49591e-33
8.49591e-33
8.49591e-33
8.49591e-33
8.49591e-33
8.49591e-33
8.49591e-33
8.49591e-33
8.49591e-33
8.49591e-33
8.49591e-33
8.49591e-33
8.49591e-33
8.49591e-33
8.49591e-33
8.49591e-33
8.49591e-33
8.49591e-33
8.49591e-33
8.49591e-33
8.49591e-33
8.49591e-33
8.49591e-33
8.49591e-33
8.49591e-33
8.49591e-33
8.49591e-33
8.49591e-33
8.49591e-33
8.49591e-33
8.49591e-33
8.49591e-33
8.49591e-33
8.49591e-33
8.49591e-33
8.49591e-33
8.49591e-33
8.49591e-33
8.49591e-33
8.49591e-33
8.49591e-33
8.49591e-33
8.49591e-33
8.49591e-33
8.49591e-33
8.49591e-33
8.49591e-33
8.49591e-33
8.49591e-33
8.49591e-33
8.49591e-33
8.49591e-33
8.49591e-33
8.49591e-33
8.49591e-33
8.49591e-33
8.49591e-33
8.49591e-33
8.49591e-33
8.49591e-33
8.49591e-33
8.49591e-33
8.49591e-33
8.49591e-33
8.49591e-33
8.49591e-33
8.49591e-33
8.49591e-33
8.49591e-33
8.49591e-33
8.49591e-33
8.49591e-33
8.49591e-33
8.49591e-33
8.49591e-33
8.49591e-33
8.49591e-33
8.49591e-33
8.49591e-33
8.49591e-33
8.49591e-33
8.49591e-33
8.49591e-33
8.49591e-33
8.49591e-33
8.49591e-33
8.49591e-33
8.49591e-33
8.49591e-33
8.49591e-33
8.49591e-33
8.49591e-33
8.49591e-33
8.49591e-33
8.49591e-33
8.49591e-33
8.49591e-33
8.49591e-33
8.49591e-33
8.49591e-33
8.49591e-33
8.49591e-33
8.49591e-33
8.49591e-33
8.49591e-33
8.49591e-33
8.49591e-33
8.49591e-33
8.49591e-33
8.49591e-33
8.49591e-33
8.49591e-33
8.49591e-33
8.49591e-33
8.49591e-33
8.49591e-33
8.49591e-33
8.49591e-33
8.49591e-33
8.49591e-33
8.49591e-33
8.49591e-33
8.49591e-33
8.49591e-33
8.49591e-33
8.49591e-33
8.49591e-33
8.49591e-33
8.49591e-33
8.49591e-33
8.49591e-33
8.49591e-33
8.49591e-33
8.49591e-33
8.49591e-33
8.49591e-33
8.49591e-33
8.49591e-33
8.49591e-33
8.49591e-33
8.49591e-33
8.49591e-33
8.49591e-33
8.49591e-33
8.49591e-33
8.49591e-33
8.49591e-33
8.49591e-33
8.49591e-33
8.49591e-33
8.49591e-33
8.49591e-33
8.49591e-33
8.49591e-33
8.49591e-33
8.49591e-33
8.49591e-33
8.49591e-33
8.49591e-33
8.49591e-33
8.49591e-33
8.49591e-33
8.49591e-33
8.49591e-33
8.49591e-33
8.49591e-33
8.49591e-33
8.49591e-33
8.49591e-33
8.49591e-33
8.49591e-33
8.49591e-33
8.49591e-33
8.49591e-33
8.49591e-33
8.49591e-33
8.49591e-33
8.49591e-33
8.49591e-33
8.49591e-33
8.49591e-33
8.49591e-33
8.49591e-33
8.49591e-33
8.49591e-33
8.49591e-33
8.49591e-33
8.49591e-33
8.49591e-33
8.49591e-33
8.49591e-33
8.49591e-33
8.49591e-33
8.49591e-33
8.49591e-33
8.49591e-33
8.49591e-33
8.49591e-33
8.49591e-33
8.49591e-33
8.49591e-33
8.49591e-33
8.49591e-33
8.49591e-33
8.49591e-33
8.49591e-33
8.49591e-33
8.49591e-33
8.49591e-33
8.49591e-33
8.49591e-33
8.49591e-33
8.49591e-33
8.49591e-33
8.49591e-33
8.49591e-33
8.49591e-33
8.49591e-33
8.49591e-33
8.49591e-33
8.49591e-33
8.49591e-33
8.49591e-33
8.49591e-33
8.49591e-33
8.49591e-33
8.49591e-33
8.49591e-33
8.49591e-33
8.49591e-33
8.49591e-33
8.49591e-33
8.49591e-33
8.49591e-33
8.49591e-33
8.49591e-33
8.49591e-33
8.49591e-33
8.49591e-33
8.49591e-33
8.49591e-33
8.49591e-33
8.49591e-33
8.49591e-33
8.49591e-33
8.49591e-33
8.49591e-33
8.49591e-33
8.49591e-33
8.49591e-33
8.49591e-33
8.49591e-33
8.49591e-33
8.49591e-33
8.49591e-33
8.49591e-33
8.49591e-33
8.49591e-33
8.49591e-33
8.49591e-33
8.49591e-33
8.49591e-33
8.49591e-33
8.49591e-33
8.49591e-33
8.49591e-33
8.49591e-33
8.49591e-33
8.49591e-33
8.49591e-33
8.49591e-33
8.49591e-33
8.49591e-33
8.49591e-33
8.49591e-33
8.49591e-33
8.49591e-33
8.49591e-33
8.49591e-33
8.49591e-33
8.49591e-33
8.49591e-33
8.49591e-33
8.49591e-33
8.49591e-33
8.49591e-33
8.49591e-33
8.49591e-33
8.49591e-33
8.49591e-33
8.49591e-33
8.49591e-33
8.49591e-33
8.49591e-33
8.49591e-33
8.49591e-33
8.49591e-33
8.49591e-33
8.49591e-33
8.49591e-33
8.49591e-33
8.49591e-33
8.49591e-33
8.49591e-33
8.49591e-33
8.49591e-33
8.49591e-33
8.49591e-33
8.49591e-33
8.49591e-33
8.49591e-33
8.49591e-33
8.49591e-33
8.49591e-33
8.49591e-33
8.49591e-33
8.49591e-33
8.49591e-33
8.49591e-33
8.49591e-33
8.49591e-33
8.49591e-33
8.49591e-33
8.49591e-33
8.49591e-33
8.49591e-33
8.49591e-33
8.49591e-33
8.49591e-33
8.49591e-33
8.49591e-33
8.49591e-33
8.49591e-33
8.49591e-33
8.49591e-33
8.49591e-33
8.49591e-33
8.49591e-33
8.49591e-33
8.49591e-33
8.49591e-33
8.49591e-33
8.49591e-33
8.49591e-33
8.49591e-33
8.49591e-33
8.49591e-33
8.49591e-33
8.49591e-33
8.49591e-33
8.49591e-33
8.49591e-33
8.49591e-33
8.49591e-33
8.49591e-33
8.49591e-33
8.49591e-33
8.49591e-33
8.49591e-33
8.49591e-33
8.49591e-33
8.49591e-33
8.49591e-33
8.49591e-33
8.49591e-33
8.49591e-33
8.49591e-33
8.49591e-33
8.49591e-33
8.49591e-33
8.49591e-33
8.49591e-33
8.49591e-33
8.49591e-33
8.49591e-33
8.49591e-33
8.49591e-33
8.49591e-33
8.49591e-33
8.49591e-33
8.49591e-33
8.49591e-33
8.49591e-33
8.49591e-33
8.49591e-33
8.49591e-33
8.49591e-33
8.49591e-33
8.49591e-33
8.49591e-33
8.49591e-33
8.49591e-33
8.49591e-33
8.49591e-33
8.49591e-33
8.49591e-33
8.49591e-33
8.49591e-33
8.49591e-33
8.49591e-33
8.49591e-33
8.49591e-33
8.49591e-33
8.49591e-33
8.49591e-33
8.49591e-33
8.49591e-33
8.49591e-33
8.49591e-33
8.49591e-33
8.49591e-33
8.49591e-33
8.49591e-33
8.49591e-33
8.49591e-33
8.49591e-33
8.49591e-33
8.49591e-33
8.49591e-33
8.49591e-33
8.49591e-33
8.49591e-33
8.49591e-33
8.49591e-33
8.49591e-33
8.49591e-33
8.49591e-33
8.49591e-33
8.49591e-33
8.49591e-33
8.49591e-33
8.49591e-33
8.49591e-33
8.49591e-33
8.49591e-33
8.49591e-33
8.49591e-33
8.49591e-33
8.49591e-33
8.49591e-33
8.49591e-33
8.49591e-33
8.49591e-33
8.49591e-33
8.49591e-33
8.49591e-33
8.49591e-33
8.49591e-33
8.49591e-33
8.49591e-33
8.49591e-33
8.49591e-33
8.49591e-33
8.49591e-33
8.49591e-33
8.49591e-33
8.49591e-33
8.49591e-33
0.0131502
0.0105928
0.0108806
0.00981257
0.00910029
0.00829193
0.00775539
0.00810477
0.00938939
0.0113922
0.011914
0.0137844
0.0152601
0.0215459
0.012538
0.00851332
0.00829661
0.00821862
0.008599
0.00852083
0.00865667
0.00979168
0.00979707
0.00999827
0.0108672
0.0110313
0.0120126
0.0194927
0.0140292
0.0107352
0.00950176
0.00925308
0.0102741
0.00970441
0.0100976
0.0111686
0.0124208
0.0144256
0.0152668
0.0153493
0.018729
0.0236529
6.02326e-06
5.75749e-06
5.4664e-06
5.86492e-06
5.54914e-06
5.76842e-06
6.25548e-06
8.27565e-06
7.86347e-06
6.99124e-06
6.41931e-06
5.63977e-06
5.02906e-06
4.77241e-06
7.99759e-06
7.54833e-06
6.77059e-06
6.43874e-06
5.51288e-06
4.47663e-06
4.29958e-06
6.01799e-06
5.37412e-06
4.91155e-06
4.90036e-06
4.7166e-06
3.83249e-06
4.52522e-06
3.68174e-06
5.19672e-06
5.26224e-06
3.688e-06
5.56658e-06
7.83976e-06
7.60167e-06
5.21982e-06
6.42183e-06
8.79146e-06
8.64438e-06
6.21046e-06
3.78568e-06
7.58317e-06
1.71145e-05
4.01247e-05
5.25846e-06
9.70235e-06
1.79753e-05
3.5894e-05
5.50472e-06
9.52345e-06
1.78606e-05
3.93037e-05
3.89513e-06
6.89833e-06
1.55248e-05
3.6753e-05
0.000175967
0.000244278
0.00037215
0.000705971
0.00180036
0.000190304
0.00025412
0.000298931
0.000443908
0.000940467
0.000169824
0.000240347
0.000271917
0.000376462
0.000766807
0.000146486
0.000223673
0.000332542
0.00059682
0.00136448
0.0024476
0.00163222
0.000849871
0.000324877
0.00149555
0.000983354
0.000554764
0.000292056
0.00118276
0.0007442
0.000485965
0.000300987
0.00191795
0.00110589
0.000598854
0.00028501
3.89581e-06
6.55271e-06
5.89686e-06
5.61969e-06
7.91392e-06
6.03997e-06
7.52853e-06
7.77895e-06
6.12231e-06
9.57667e-06
0.00247976
0.00541739
0.00602542
0.00707639
1.35018e-05
1.19692e-05
0.000767983
0.00150072
0.0079237
0.00609525
0.00612053
0.0133208
0.0122144
0.0140173
1.08101e-05
1.0954e-05
1.04385e-05
7.85437e-06
4.69674e-06
1.01088e-05
0.00330016
3.93986e-05
0.000122751
0.000366308
4.53998e-05
0.000515502
0.000855818
0.00200551
0.000663235
0.000261923
0.0001869
8.4331e-05
6.22033e-05
2.65988e-05
2.01774e-05
9.7622e-06
0.00119268
3.42222e-05
1.43992e-05
0.00057461
0.00482526
0.00320414
0.00172782
0.00125559
0.000331824
0.000208667
0.0022146
0.000120465
1.10338e-05
9.93835e-06
8.50562e-06
8.72794e-06
1.26568e-05
5.5223e-06
0.00832309
0.00812752
0.0131248
9.93507e-06
0.00293372
1.3444e-05
0.00516837
0.0102968
1.10122e-05
2.02166e-05
0.00496554
1.27195e-05
1.38304e-05
0.00536731
1.33716e-05
0.00454405
0.00521576
0.00556291
1.36936e-05
0.00342692
5.31437e-05
0.00272585
2.66247e-05
5.25959e-05
0.000267152
0.000126767
8.60499e-05
0.000366774
5.89794e-06
0.000503617
0.000692482
0.000174621
0.000878651
0.0014223
6.59314e-05
3.74622e-05
1.50532e-05
3.20124e-05
2.13273e-05
0.000343542
0.00480259
0.00357733
0.00059837
0.00107332
0.00163202
0.000227391
1.37226e-05
1.03227e-05
1.49055e-05
8.89792e-06
0.00377851
1.58912e-05
1.26179e-05
0.0050539
0.00435215
1.43128e-05
0.0041245
1.40925e-05
0.00432026
0.00432545
1.50086e-05
0.00495455
1.1805e-05
0.00532778
0.00434694
2.25749e-05
1.55795e-05
0.0020475
0.00386825
0.000316353
0.000157696
0.000216516
3.54953e-05
0.000105454
4.55268e-05
0.000471479
7.8892e-05
6.02182e-05
3.17421e-05
1.83803e-05
0.000703671
2.47698e-05
0.00078063
0.00109711
0.00344502
3.21367e-05
0.00215407
0.000773093
0.000486547
0.00406472
0.00028607
0.00111685
7.75435e-06
1.65387e-05
1.19272e-05
1.18568e-05
1.81197e-05
1.68197e-05
0.00364534
0.00307441
1.43258e-05
1.68906e-05
0.00444996
0.00379072
1.43477e-05
1.8479e-05
0.00289131
0.00221412
0.00116293
0.00322915
0.00379247
1.89399e-05
0.00182935
1.44689e-05
2.17092e-05
5.33538e-05
3.96608e-05
0.000236253
0.000312418
7.2923e-05
0.000152181
0.000107376
2.47081e-05
0.00115112
0.000875939
0.000451969
0.000649126
3.1109e-05
5.64361e-06
0.00332949
2.24506e-05
4.37694e-05
0.00160485
0.000165319
0.000453362
0.000305991
0.000649914
0.00551036
1.82109e-05
1.09764e-05
1.15835e-05
2.06942e-05
0.00302925
0.00282776
0.00247178
0.0021294
0.00176785
1.75473e-05
2.14218e-05
2.17062e-05
1.61662e-05
2.9202e-05
4.28159e-05
7.01143e-05
0.000107768
2.04686e-05
3.20276e-05
0.00037014
0.000258555
0.00124986
0.000513762
0.000162344
2.57469e-05
0.000939879
0.000744073
9.45035e-05
0.000186306
0.000141576
0.000926118
0.00027782
0.000434787
0.00184818
2.3229e-05
1.71256e-05
8.61069e-06
2.64047e-05
0.00220559
0.00177379
0.00244795
1.70632e-05
2.03346e-05
2.05558e-05
2.58613e-05
8.19273e-05
4.6945e-05
0.000117395
3.06131e-05
2.26128e-05
0.000192085
0.000578826
0.00119128
0.000819037
6.05443e-05
3.41839e-05
9.63232e-05
0.000116985
0.00129532
0.00217918
1.42662e-05
3.73764e-05
6.63159e-05
4.18306e-05
2.85267e-05
0.0016746
0.00134504
1.47563e-05
5.90462e-05
1.10134e-05
0.00397644
1.32332e-05
3.20849e-06
4.74723e-06
6.17868e-06
7.03962e-06
7.29404e-06
7.86315e-06
7.28734e-06
6.72361e-06
5.91972e-06
5.19759e-06
6.41122e-06
6.93255e-06
6.64877e-06
5.93279e-06
5.59725e-06
4.55265e-06
4.58236e-06
4.10206e-06
5.25479e-06
6.64688e-06
7.37851e-06
7.3277e-06
6.5231e-06
6.68748e-06
5.94746e-06
5.56702e-06
5.12441e-06
3.50772e-06
5.59833e-06
7.35608e-06
8.80859e-06
9.21355e-06
1.01757e-05
1.02176e-05
8.49776e-06
7.70332e-06
6.77484e-06
5.58285e-06
6.93837e-06
5.59515e-06
4.85364e-06
4.59453e-05
7.93418e-06
2.35143e-05
3.04006e-05
0.00253514
1.20859e-05
1.59766e-05
5.16597e-06
1.15632e-05
2.48069e-05
6.08863e-06
5.55262e-06
5.48524e-06
5.66957e-06
7.04224e-06
9.39891e-06
9.76565e-06
9.31588e-06
9.05804e-06
8.52789e-06
7.93864e-06
6.0196e-06
4.09882e-06
4.85009e-05
0.00015205
6.99856e-05
0.000237706
0.000103208
0.000404776
0.000142899
0.000743005
0.000213218
0.00150098
0.000308708
0.00285914
0.00043275
0.000621632
0.000903228
0.00123591
0.00178316
0.00316476
0.00418683
0.00681339
0.00967976
0.0137477
0.0184801
0.0232917
0.0277058
0.0312533
0.0373202
0.0439311
0.0452258
0.0511228
0.0603222
0.0595701
0.0724393
0.0597708
0.0576745
0.0547262
0.0378408
0.0255729
0.0230374
0.0291656
0.0272735
0.0199848
0.0189085
0.0206552
0.00212514
0.00211477
0.0025708
0.00358273
0.0063294
0.0095345
0.0129122
0.0171754
0.0236881
0.0267542
0.0302267
0.033206
0.0383391
0.0442577
0.0488238
0.0512322
0.0567425
0.0650218
0.0627417
0.0543912
0.0364731
0.00372135
0.00276548
0.00178448
0.00113105
8.62074e-06
7.24335e-06
8.07262e-06
7.83363e-06
8.56381e-06
9.85533e-06
4.35935e-06
9.44966e-06
0.0292361
0.0208084
0.00188994
7.42788e-06
1.2169e-05
8.91921e-05
0.0600904
0.0607013
0.00314251
1.68737e-05
0.000132972
0.000679066
0.000931521
0.0592872
0.0456174
0.0274831
1.01937e-05
8.66266e-06
0.00448694
0.00905216
0.00360712
0.0102964
0.0146285
0.0252455
0.0299225
0.0399095
0.0476445
0.0317869
0.00342928
0.0167047
0.0207429
0.0305862
0.0358823
0.0411257
0.0428037
0.00311496
5.99275e-05
0.055924
0.0522753
0.0274531
0.0303838
9.29211e-06
1.15386e-05
3.23402e-05
1.10135e-05
1.13341e-05
2.19783e-05
1.64171e-05
4.38629e-05
0.000172793
0.000256025
0.000340949
0.000486793
0.00215182
0.00137764
0.00490431
0.00721865
0.0188302
0.0344031
0.0660959
0.0366558
0.0371321
0.0532543
0.066303
0.0486294
0.0346513
0.03267
0.00640494
0.0126267
0.0254413
0.0399105
0.0509703
0.0567274
0.0602157
0.0589764
0.0197374
0.00311463
0.00107709
1.07749e-05
2.86886e-05
0.00366423
0.00281554
6.56592e-05
0.00126284
0.000455865
0.000770541
0.00224062
0.000256862
1.05145e-05
1.05738e-05
0.0387254
1.20528e-05
0.00233891
1.17811e-05
0.0036627
1.71219e-05
0.0395587
0.00391989
0.0445209
0.0554955
0.05974
0.049979
0.0513874
0.0575462
0.0382402
0.0411706
0.05242
4.05606e-05
0.0604991
0.0526354
0.0492112
0.057703
0.0505312
0.0362012
0.0506327
0.0606519
0.0362222
0.0443961
0.0355916
0.0486211
0.0500656
0.0554778
0.0293664
0.0363238
0.0252154
0.0346069
0.0203195
0.0276594
0.0170956
0.0122302
0.0242787
0.00847919
0.0187538
0.000308052
0.00594467
0.000211632
0.00265577
0.0149586
1.29625e-05
0.000149783
0.00479044
0.00119536
0.00177153
1.14735e-05
0.000824986
0.000101838
0.00548855
2.89101e-05
0.000429373
5.21284e-05
1.21978e-05
0.00424264
0.0107583
0.00061495
1.38596e-05
1.23971e-05
7.17664e-05
0.00825613
1.95473e-05
0.0368282
0.00397507
1.16917e-05
7.3922e-06
0.00307636
1.27008e-05
0.00358994
2.95379e-05
0.000141012
0.000899852
0.00050139
0.000340443
0.00148415
1.29098e-05
1.39864e-05
1.01909e-05
1.4958e-05
0.00439131
4.19935e-05
0.0136617
0.00077129
0.010578
5.85482e-05
0.00504274
1.54232e-05
1.49674e-05
0.00238905
0.00348614
0.00648227
0.0173006
0.00815735
0.0220266
0.000961131
0.0112906
0.0276071
0.0153492
0.0318275
0.0194578
0.0233371
0.0440425
0.0445989
0.0507612
0.0356482
0.0285378
1.39533e-05
0.0393192
0.0332834
0.0441623
0.039518
0.0445896
0.0483369
0.0516428
0.0500852
0.0539378
0.0529586
0.0608383
0.057349
0.0644248
0.0607585
0.0587813
0.0553116
0.0554941
0.0552226
0.0480169
0.0557782
0.0559764
0.00148818
0.0506213
0.0491166
0.000285166
0.000195424
0.000544559
0.000130469
8.54389e-05
0.00686485
0.00447517
3.37226e-05
2.35481e-05
0.000388253
1.63662e-05
1.73326e-05
1.05885e-05
0.00370224
1.53766e-05
0.0038
0.00334956
2.12888e-05
0.00316326
4.67104e-05
4.53943e-06
0.00191331
0.000229685
0.000594656
0.000380216
0.000853017
1.78949e-05
9.75281e-06
1.23698e-05
1.93423e-05
0.00538642
0.00584618
5.21723e-05
0.0110965
1.95472e-05
0.0145114
0.00103033
0.000814291
1.79064e-05
0.0179882
0.00857712
0.00748067
0.00200788
0.00957142
0.0127767
7.83328e-05
0.0229095
0.00142516
0.026521
0.0168357
0.03085
0.02067
0.0248537
0.0345503
0.0555976
0.0290579
0.0383417
0.0342455
0.0436782
0.0392255
0.0439693
0.0535147
0.0456542
0.0494221
0.0558114
0.0504252
0.0575036
0.0605179
0.0539305
0.0601246
0.0603711
0.0614666
0.0623218
0.0526641
0.0545966
2.08021e-05
1.2656e-05
0.000202625
0.00608538
0.00311071
0.000549908
0.000305317
0.00437992
3.53341e-05
0.000134038
0.000433675
2.67635e-05
2.03473e-05
0.00440311
1.89665e-05
0.00468672
0.00350241
0.00256735
2.46168e-05
0.00132103
0.00225926
0.000253313
0.000348205
0.000510629
0.00464901
2.28759e-05
1.50776e-05
9.70181e-06
2.53906e-05
0.00633667
0.00764322
0.0130921
0.0098401
0.0160762
8.68684e-05
0.00977949
0.00147992
0.00121239
0.00762704
0.00200355
2.42589e-05
0.0197691
0.0124619
0.015094
0.023971
0.000863196
0.0278585
0.019216
0.0314821
0.0232286
0.0285672
0.0358519
0.0332245
0.059253
0.0416833
0.0376346
0.0423316
0.0475375
0.0445524
0.0538727
0.0488056
0.0570216
0.0528334
0.0583592
0.0558656
0.062439
0.0592627
5.48922e-05
0.0026032
0.0055153
0.00013948
0.000234042
0.00375381
3.38148e-05
2.79529e-05
2.71649e-05
0.0043041
0.0026112
1.83155e-05
0.00350213
3.3799e-05
0.00204257
0.00151932
0.000127596
0.0677147
1.13558e-05
0.00784608
0.00975182
0.0103818
0.0134183
0.00806662
0.011914
0.0161802
0.00200866
0.0155114
0.0193814
6.96385e-05
0.0186828
0.0244159
0.00611094
0.0279428
0.0224515
0.0261456
0.0314295
0.0305198
0.0368648
0.0366033
0.0395514
0.0393397
0.0639225
0.0607496
0.0450206
0.0410515
0.0537992
0.0494964
0.0548846
0.0555798
0.0565329
0.0603245
0.00262949
0.00466416
0.00351435
0.00493562
4.19151e-05
1.53831e-05
0.00400126
5.31426e-05
0.00335644
0.000103495
3.89276e-05
5.88039e-05
0.0590897
0.00918514
0.0120136
0.0119099
0.00901274
0.0151498
0.0132731
0.00717603
0.0167295
0.00272722
0.0182935
0.0214022
0.0209303
0.026067
0.025261
0.0295982
0.0284891
0.0332245
0.0340567
0.0365413
0.0389148
0.042141
0.0434747
0.0472154
0.0477235
0.0541011
0.00563386
0.00573633
0.00448727
0.0038991
0.054361
0.00574213
4.68958e-05
0.0049964
0.00219356
7.88373e-05
0.00697904
0.00461119
0.0581968
0.000613688
0.0204274
0.00333314
0.00188537
0.00510691
0.113001
0.129652
0.122735
0.130372
0.144682
0.131755
0.142877
0.157648
0.146009
0.13494
0.125182
0.128469
0.122867
0.124293
0.0794645
0.0754298
0.0793195
0.0861311
0.082884
0.0883599
0.0874196
0.0874103
0.0882512
0.0837756
0.0796787
0.0768834
0.0789843
0.0821768
0.0554387
0.0542682
0.0470522
0.0503795
0.0587358
0.0584195
0.0555481
0.05882
0.0566651
0.0513639
0.0504206
0.0503364
0.0526709
0.0527101
0.0258607
0.0248015
0.0277442
0.0252418
0.0310001
0.0276222
0.0294284
0.0291803
0.0260128
0.024677
0.0247688
0.02591
0.0258263
0.025733
0.000315717
0.000397531
0.000469968
0.000523528
0.000745633
0.000869699
0.000974216
0.00107254
0.00155225
0.00151004
0.00161646
0.0015958
0.00301811
0.00238775
0.00182324
0.00168559
0.00656762
0.00392934
0.002037
0.00166412
0.0122968
0.00730849
0.00404589
0.00314163
0.0154276
0.0114735
0.00834735
0.00593772
0.01866
0.0169603
0.0131034
0.00947458
0.0214458
0.0211007
0.0179852
0.0131377
0.0250738
0.024206
0.0214393
0.0171275
0.0263188
0.0277947
0.024007
0.0220993
0.0237039
0.0262794
0.025757
0.0247458
0.0254084
0.0233508
0.0236835
0.0269213
0.0272303
0.0246845
0.0245697
0.0294675
0.0295179
0.0246657
0.0253601
0.0320422
0.0331401
0.025198
0.0259019
0.0353161
0.036238
0.0252004
0.024398
0.0393116
0.0358601
0.0254431
0.0248343
0.0417633
0.0437859
0.0280373
0.0323961
0.0459597
0.0521699
0.0362151
0.0396398
0.051114
0.0774386
0.0604869
0.0629377
0.0599308
0.0920513
0.0937935
0.0902583
0.0714165
0.112234
0.113573
0.103054
0.0639231
0.121058
0.103514
0.0820969
0.0488793
0.108303
0.0963694
0.0745639
0.047199
0.113881
0.110172
0.0977687
0.0643303
0.106358
0.0994986
0.0863007
0.0671314
0.0874139
0.0632161
0.0565027
0.0569247
0.0623406
0.0443822
0.0406946
0.0510713
0.056804
0.043594
0.0410171
0.0474614
0.0506552
0.0456598
0.0452064
0.0514323
0.0486064
0.0468935
0.0498963
0.0493266
0.0450704
0.0488244
0.0531024
0.048072
0.0443661
0.0511124
0.0518603
0.0451005
0.0428854
0.0525403
0.0536353
0.0431818
0.0420591
0.0543869
0.0530939
0.0406981
0.0447837
0.0579548
0.0540207
0.0376065
0.0557296
0.0562309
0.0501507
0.0339516
0.0503189
0.0480143
0.0402561
0.0278045
0.0369219
0.0344576
0.0309843
0.0211335
0.0293242
0.0259796
0.0222579
0.014864
0.0229276
0.0177381
0.0137299
0.00950178
0.0176129
0.0105858
0.00719704
0.00534504
0.00902295
0.00583763
0.00332488
0.00294223
0.00448238
0.0041187
0.00284474
0.00251558
0.00240048
0.00287643
0.00260515
0.00219978
0.00143756
0.00201347
0.00206062
0.00174014
0.00106235
0.00145536
0.00157888
0.00127493
0.000753943
0.00103045
0.00115358
0.000923704
0.000519415
0.000760876
0.000801744
0.000638734
0.000393621
0.000537759
0.000557655
0.000442671
0.000281083
0.000387972
0.000400159
0.000306341
0.000191599
0.000273367
0.00027925
0.000209274
0.000134405
0.000198336
0.00020409
0.000148099
9.72692e-05
0.000142502
0.000142215
0.000101141
6.86427e-05
9.70268e-05
9.86943e-05
7.30643e-05
4.98682e-05
6.8575e-05
6.90614e-05
4.91032e-05
3.54601e-05
4.96089e-05
4.83205e-05
3.35675e-05
2.75522e-05
3.58002e-05
3.54038e-05
2.54064e-05
1.89089e-05
2.60661e-05
2.49709e-05
1.73696e-05
1.28799e-05
1.82537e-05
1.60346e-05
1.17098e-05
8.61989e-06
1.09972e-05
1.0891e-05
6.67458e-06
4.49431e-06
6.59382e-06
6.55562e-06
4.56426e-06
0.104308
0.0644717
0.0546786
0.0501945
0.045911
0.0415676
0.0373647
0.0335243
0.0319542
0.0401791
0.112592
0.066054
0.0599255
0.0484799
0.048663
0.0416823
0.0413492
0.0356149
0.034373
0.0386006
0.0993562
0.0633002
0.0561074
0.0496111
0.0454665
0.0417955
0.0395166
0.0358716
0.0320659
0.034208
0.118499
0.0595307
0.055702
0.0510593
0.0443772
0.0401176
0.0374156
0.0336794
0.0307018
0.0284669
0.0983059
0.0575927
0.0537153
0.0495742
0.04596
0.0405752
0.0366536
0.0327186
0.0294986
0.0259358
0.0985461
0.051966
0.0497154
0.0457199
0.0440085
0.0373395
0.0369465
0.0310456
0.0269321
0.0255738
0.101036
0.0516957
0.0482437
0.0449456
0.0431736
0.0401933
0.035703
0.0305349
0.0261565
0.0223954
0.106771
0.0606873
0.0484687
0.0501837
0.0405096
0.0391296
0.0373629
0.0293867
0.0247792
0.0220123
0.0930544
0.0594142
0.0495051
0.0499219
0.0411603
0.0363575
0.0338618
0.0315846
0.0266944
0.0215314
0.0932731
0.0533529
0.0555813
0.046524
0.0413946
0.0361512
0.0317602
0.0304891
0.0243422
0.0203725
0.106422
0.0621253
0.0543622
0.0506074
0.0441535
0.0359367
0.0325048
0.0289007
0.0231096
0.0196246
0.0931546
0.0569131
0.0486208
0.0453636
0.0409904
0.0370092
0.0315703
0.0269872
0.0231529
0.0196663
0.106156
0.0635724
0.0516698
0.0474595
0.0423859
0.0371418
0.0331358
0.0277726
0.0233306
0.0199369
0.0836173
0.0569762
0.0494151
0.0460481
0.0421186
0.0371633
0.03263
0.0279772
0.0237567
0.0213659
8.49591e-33
8.49591e-33
8.49591e-33
8.49591e-33
8.49591e-33
8.49591e-33
8.49591e-33
8.49591e-33
8.49591e-33
8.49591e-33
8.49591e-33
8.49591e-33
8.49591e-33
8.49591e-33
8.49591e-33
8.49591e-33
8.49591e-33
8.49591e-33
8.49591e-33
8.49591e-33
8.49591e-33
8.49591e-33
8.49591e-33
8.49591e-33
8.49591e-33
8.49591e-33
8.49591e-33
8.49591e-33
8.49591e-33
8.49591e-33
8.49591e-33
8.49591e-33
8.49591e-33
8.49591e-33
8.49591e-33
8.49591e-33
8.49591e-33
8.49591e-33
8.49591e-33
8.49591e-33
8.49591e-33
8.49591e-33
8.49591e-33
8.49591e-33
8.49591e-33
8.49591e-33
8.49591e-33
8.49591e-33
8.49591e-33
8.49591e-33
8.49591e-33
8.49591e-33
8.49591e-33
8.49591e-33
8.49591e-33
8.49591e-33
8.49591e-33
8.49591e-33
8.49591e-33
8.49591e-33
8.49591e-33
8.49591e-33
8.49591e-33
8.49591e-33
8.49591e-33
8.49591e-33
8.49591e-33
8.49591e-33
8.49591e-33
8.49591e-33
8.49591e-33
8.49591e-33
8.49591e-33
8.49591e-33
8.49591e-33
8.49591e-33
8.49591e-33
8.49591e-33
8.49591e-33
8.49591e-33
8.49591e-33
8.49591e-33
8.49591e-33
8.49591e-33
8.49591e-33
8.49591e-33
8.49591e-33
8.49591e-33
8.49591e-33
8.49591e-33
8.49591e-33
8.49591e-33
8.49591e-33
8.49591e-33
8.49591e-33
8.49591e-33
8.49591e-33
8.49591e-33
8.49591e-33
8.49591e-33
8.49591e-33
8.49591e-33
8.49591e-33
8.49591e-33
8.49591e-33
8.49591e-33
8.49591e-33
8.49591e-33
8.49591e-33
8.49591e-33
8.49591e-33
8.49591e-33
8.49591e-33
8.49591e-33
8.49591e-33
8.49591e-33
8.49591e-33
8.49591e-33
8.49591e-33
8.49591e-33
8.49591e-33
8.49591e-33
8.49591e-33
8.49591e-33
8.49591e-33
8.49591e-33
8.49591e-33
8.49591e-33
8.49591e-33
8.49591e-33
8.49591e-33
8.49591e-33
8.49591e-33
8.49591e-33
8.49591e-33
8.49591e-33
8.49591e-33
8.49591e-33
8.49591e-33
8.49591e-33
8.49591e-33
8.49591e-33
8.49591e-33
8.49591e-33
8.49591e-33
8.49591e-33
8.49591e-33
8.49591e-33
8.49591e-33
8.49591e-33
8.49591e-33
8.49591e-33
8.49591e-33
8.49591e-33
8.49591e-33
8.49591e-33
8.49591e-33
8.49591e-33
8.49591e-33
8.49591e-33
8.49591e-33
8.49591e-33
8.49591e-33
8.49591e-33
8.49591e-33
8.49591e-33
8.49591e-33
8.49591e-33
8.49591e-33
8.49591e-33
8.49591e-33
8.49591e-33
8.49591e-33
8.49591e-33
8.49591e-33
8.49591e-33
8.49591e-33
8.49591e-33
8.49591e-33
8.49591e-33
8.49591e-33
8.49591e-33
8.49591e-33
8.49591e-33
8.49591e-33
8.49591e-33
8.49591e-33
8.49591e-33
8.49591e-33
8.49591e-33
8.49591e-33
8.49591e-33
8.49591e-33
8.49591e-33
8.49591e-33
8.49591e-33
8.49591e-33
8.49591e-33
8.49591e-33
8.49591e-33
8.49591e-33
8.49591e-33
8.49591e-33
8.49591e-33
8.49591e-33
8.49591e-33
8.49591e-33
8.49591e-33
8.49591e-33
8.49591e-33
8.49591e-33
8.49591e-33
8.49591e-33
8.49591e-33
8.49591e-33
8.49591e-33
8.49591e-33
8.49591e-33
8.49591e-33
8.49591e-33
8.49591e-33
8.49591e-33
8.49591e-33
8.49591e-33
8.49591e-33
8.49591e-33
8.49591e-33
8.49591e-33
8.49591e-33
8.49591e-33
8.49591e-33
8.49591e-33
8.49591e-33
8.49591e-33
8.49591e-33
8.49591e-33
8.49591e-33
8.49591e-33
8.49591e-33
8.49591e-33
8.49591e-33
8.49591e-33
8.49591e-33
8.49591e-33
8.49591e-33
8.49591e-33
8.49591e-33
8.49591e-33
8.49591e-33
8.49591e-33
8.49591e-33
8.49591e-33
8.49591e-33
8.49591e-33
8.49591e-33
8.49591e-33
8.49591e-33
8.49591e-33
8.49591e-33
8.49591e-33
8.49591e-33
8.49591e-33
8.49591e-33
8.49591e-33
8.49591e-33
8.49591e-33
8.49591e-33
8.49591e-33
8.49591e-33
8.49591e-33
8.49591e-33
8.49591e-33
8.49591e-33
8.49591e-33
8.49591e-33
8.49591e-33
8.49591e-33
8.49591e-33
8.49591e-33
8.49591e-33
8.49591e-33
8.49591e-33
8.49591e-33
8.49591e-33
8.49591e-33
8.49591e-33
8.49591e-33
8.49591e-33
8.49591e-33
8.49591e-33
8.49591e-33
8.49591e-33
8.49591e-33
8.49591e-33
8.49591e-33
8.49591e-33
8.49591e-33
8.49591e-33
8.49591e-33
8.49591e-33
8.49591e-33
8.49591e-33
8.49591e-33
8.49591e-33
8.49591e-33
8.49591e-33
8.49591e-33
8.49591e-33
8.49591e-33
8.49591e-33
8.49591e-33
8.49591e-33
8.49591e-33
8.49591e-33
8.49591e-33
8.49591e-33
8.49591e-33
8.49591e-33
8.49591e-33
8.49591e-33
8.49591e-33
8.49591e-33
8.49591e-33
8.49591e-33
8.49591e-33
8.49591e-33
8.49591e-33
8.49591e-33
8.49591e-33
8.49591e-33
8.49591e-33
8.49591e-33
8.49591e-33
8.49591e-33
8.49591e-33
8.49591e-33
8.49591e-33
8.49591e-33
8.49591e-33
8.49591e-33
8.49591e-33
8.49591e-33
8.49591e-33
8.49591e-33
8.49591e-33
8.49591e-33
8.49591e-33
8.49591e-33
8.49591e-33
8.49591e-33
8.49591e-33
8.49591e-33
8.49591e-33
8.49591e-33
8.49591e-33
8.49591e-33
8.49591e-33
8.49591e-33
8.49591e-33
8.49591e-33
8.49591e-33
8.49591e-33
8.49591e-33
8.49591e-33
8.49591e-33
8.49591e-33
8.49591e-33
8.49591e-33
8.49591e-33
8.49591e-33
8.49591e-33
8.49591e-33
8.49591e-33
8.49591e-33
8.49591e-33
8.49591e-33
8.49591e-33
8.49591e-33
8.49591e-33
8.49591e-33
8.49591e-33
8.49591e-33
8.49591e-33
8.49591e-33
8.49591e-33
8.49591e-33
8.49591e-33
8.49591e-33
8.49591e-33
8.49591e-33
8.49591e-33
8.49591e-33
8.49591e-33
8.49591e-33
8.49591e-33
8.49591e-33
8.49591e-33
8.49591e-33
8.49591e-33
8.49591e-33
8.49591e-33
8.49591e-33
8.49591e-33
8.49591e-33
8.49591e-33
8.49591e-33
8.49591e-33
8.49591e-33
8.49591e-33
8.49591e-33
8.49591e-33
8.49591e-33
8.49591e-33
8.49591e-33
8.49591e-33
8.49591e-33
8.49591e-33
8.49591e-33
8.49591e-33
8.49591e-33
8.49591e-33
8.49591e-33
8.49591e-33
8.49591e-33
8.49591e-33
8.49591e-33
8.49591e-33
8.49591e-33
8.49591e-33
8.49591e-33
8.49591e-33
8.49591e-33
8.49591e-33
8.49591e-33
8.49591e-33
8.49591e-33
8.49591e-33
8.49591e-33
8.49591e-33
8.49591e-33
8.49591e-33
8.49591e-33
8.49591e-33
8.49591e-33
8.49591e-33
8.49591e-33
8.49591e-33
8.49591e-33
8.49591e-33
8.49591e-33
8.49591e-33
8.49591e-33
8.49591e-33
8.49591e-33
8.49591e-33
8.49591e-33
8.49591e-33
8.49591e-33
8.49591e-33
8.49591e-33
8.49591e-33
8.49591e-33
8.49591e-33
8.49591e-33
8.49591e-33
8.49591e-33
8.49591e-33
8.49591e-33
8.49591e-33
8.49591e-33
8.49591e-33
8.49591e-33
8.49591e-33
8.49591e-33
8.49591e-33
8.49591e-33
8.49591e-33
8.49591e-33
8.49591e-33
8.49591e-33
8.49591e-33
8.49591e-33
8.49591e-33
8.49591e-33
8.49591e-33
8.49591e-33
8.49591e-33
8.49591e-33
8.49591e-33
8.49591e-33
8.49591e-33
8.49591e-33
8.49591e-33
8.49591e-33
8.49591e-33
8.49591e-33
8.49591e-33
8.49591e-33
8.49591e-33
8.49591e-33
8.49591e-33
8.49591e-33
8.49591e-33
8.49591e-33
8.49591e-33
8.49591e-33
8.49591e-33
8.49591e-33
8.49591e-33
8.49591e-33
8.49591e-33
8.49591e-33
8.49591e-33
8.49591e-33
8.49591e-33
8.49591e-33
8.49591e-33
8.49591e-33
8.49591e-33
8.49591e-33
8.49591e-33
8.49591e-33
8.49591e-33
8.49591e-33
8.49591e-33
8.49591e-33
8.49591e-33
8.49591e-33
8.49591e-33
8.49591e-33
8.49591e-33
8.49591e-33
8.49591e-33
8.49591e-33
8.49591e-33
8.49591e-33
8.49591e-33
8.49591e-33
8.49591e-33
8.49591e-33
8.49591e-33
8.49591e-33
8.49591e-33
8.49591e-33
8.49591e-33
8.49591e-33
8.49591e-33
8.49591e-33
8.49591e-33
8.49591e-33
8.49591e-33
8.49591e-33
8.49591e-33
8.49591e-33
8.49591e-33
8.49591e-33
8.49591e-33
8.49591e-33
8.49591e-33
8.49591e-33
8.49591e-33
8.49591e-33
8.49591e-33
8.49591e-33
8.49591e-33
8.49591e-33
8.49591e-33
8.49591e-33
8.49591e-33
8.49591e-33
8.49591e-33
8.49591e-33
8.49591e-33
8.49591e-33
8.49591e-33
8.49591e-33
8.49591e-33
8.49591e-33
8.49591e-33
8.49591e-33
8.49591e-33
8.49591e-33
8.49591e-33
8.49591e-33
8.49591e-33
8.49591e-33
8.49591e-33
8.49591e-33
8.49591e-33
8.49591e-33
8.49591e-33
8.49591e-33
8.49591e-33
8.49591e-33
8.49591e-33
8.49591e-33
8.49591e-33
8.49591e-33
8.49591e-33
8.49591e-33
8.49591e-33
8.49591e-33
8.49591e-33
8.49591e-33
8.49591e-33
8.49591e-33
8.49591e-33
8.49591e-33
8.49591e-33
8.49591e-33
8.49591e-33
8.49591e-33
8.49591e-33
8.49591e-33
8.49591e-33
8.49591e-33
8.49591e-33
8.49591e-33
8.49591e-33
8.49591e-33
8.49591e-33
8.49591e-33
8.49591e-33
8.49591e-33
8.49591e-33
8.49591e-33
8.49591e-33
8.49591e-33
8.49591e-33
8.49591e-33
8.49591e-33
8.49591e-33
8.49591e-33
8.49591e-33
8.49591e-33
8.49591e-33
8.49591e-33
8.49591e-33
8.49591e-33
8.49591e-33
8.49591e-33
8.49591e-33
8.49591e-33
8.49591e-33
8.49591e-33
8.49591e-33
8.49591e-33
8.49591e-33
8.49591e-33
8.49591e-33
8.49591e-33
8.49591e-33
8.49591e-33
8.49591e-33
8.49591e-33
8.49591e-33
8.49591e-33
8.49591e-33
8.49591e-33
8.49591e-33
8.49591e-33
8.49591e-33
8.49591e-33
8.49591e-33
8.49591e-33
8.49591e-33
8.49591e-33
8.49591e-33
8.49591e-33
8.49591e-33
8.49591e-33
8.49591e-33
8.49591e-33
8.49591e-33
8.49591e-33
8.49591e-33
8.49591e-33
8.49591e-33
8.49591e-33
8.49591e-33
8.49591e-33
8.49591e-33
8.49591e-33
8.49591e-33
8.49591e-33
8.49591e-33
8.49591e-33
8.49591e-33
8.49591e-33
8.49591e-33
8.49591e-33
8.49591e-33
8.49591e-33
8.49591e-33
8.49591e-33
8.49591e-33
8.49591e-33
8.49591e-33
8.49591e-33
8.49591e-33
8.49591e-33
8.49591e-33
8.49591e-33
8.49591e-33
8.49591e-33
8.49591e-33
8.49591e-33
8.49591e-33
8.49591e-33
8.49591e-33
8.49591e-33
8.49591e-33
8.49591e-33
8.49591e-33
8.49591e-33
8.49591e-33
8.49591e-33
8.49591e-33
8.49591e-33
8.49591e-33
8.49591e-33
8.49591e-33
8.49591e-33
8.49591e-33
8.49591e-33
8.49591e-33
8.49591e-33
8.49591e-33
8.49591e-33
8.49591e-33
8.49591e-33
8.49591e-33
8.49591e-33
8.49591e-33
8.49591e-33
8.49591e-33
8.49591e-33
8.49591e-33
8.49591e-33
8.49591e-33
8.49591e-33
8.49591e-33
8.49591e-33
8.49591e-33
8.49591e-33
8.49591e-33
8.49591e-33
8.49591e-33
8.49591e-33
8.49591e-33
8.49591e-33
8.49591e-33
8.49591e-33
8.49591e-33
8.49591e-33
8.49591e-33
8.49591e-33
8.49591e-33
8.49591e-33
8.49591e-33
8.49591e-33
8.49591e-33
0.000336845
0.000542686
0.000366751
0.000433162
0.000360482
0.000387995
0.000916581
0.00141558
0.00115145
0.000848683
0.00135195
0.00160014
0.00141971
0.00105574
0.000547599
0.000880549
0.00168084
0.00106838
0.00457889
0.00452982
0.00346665
0.00499483
0.00531422
0.0040315
0.00365018
0.00284064
8.80747e-06
8.45112e-06
1.1029e-05
8.04277e-06
1.19418e-05
8.94519e-06
1.05195e-05
9.92558e-06
6.83178e-06
8.92287e-06
8.4247e-06
7.10556e-06
7.3166e-06
8.96263e-06
9.31048e-06
7.6579e-06
6.95985e-06
9.56375e-06
8.2544e-06
1.15564e-05
9.76399e-06
1.0437e-05
1.03897e-05
8.30781e-06
0.0377499
0.0338337
0.0324421
0.0409443
0.0577312
0.0418067
0.0562164
0.0439676
0.0471883
0.0353329
0.00166762
0.00215992
0.00143207
0.00186678
0.00130931
0.00188975
0.00202245
0.00171767
0.0221594
0.00169057
0.00137602
0.0470879
0.0728551
0.0551383
0.0435226
0.051538
0.0671861
0.0354712
0.0426728
7.53899e-06
6.87379e-06
8.01091e-06
7.74347e-06
7.14388e-06
8.32079e-06
7.60798e-06
9.84925e-06
8.30795e-06
8.3145e-06
0.00189819
0.00122296
0.00258282
7.84381e-06
4.95615e-06
5.01474e-06
5.06527e-06
4.75871e-06
4.72179e-06
5.92029e-06
5.7483e-06
6.29454e-06
5.48328e-06
7.50316e-06
7.11218e-06
6.49242e-06
7.55629e-06
8.49389e-06
7.0475e-06
0.00444526
0.00285905
0.00390495
0.00448329
0.00262943
0.00200967
0.00316279
0.00335746
0.00223294
0.00196127
0.00276947
0.00180987
0.0253955
0.0230216
0.00387009
0.0029771
1.43789e-05
1.34474e-05
1.11758e-05
1.70087e-05
1.21564e-05
1.593e-05
1.68815e-05
1.70487e-05
0.000267848
0.000207473
0.000195334
0.000213819
0.000241445
0.000184312
0.000298877
0.0522781
0.0523675
0.0438039
0.00030113
0.000411096
0.000301587
0.0161389
0.0139111
0.0124146
0.0103034
0.0192379
0.0210613
0.0204294
0.0143062
0.0223804
0.0203439
0.0153836
0.0182317
0.0187385
0.0182056
0.0192012
0.0173127
0.0189228
0.0132879
0.0153494
0.0742712
0.0744847
0.0828327
0.090178
0.0484346
0.0619805
0.0669504
0.059443
0.0525905
0.0590483
0.0649243
0.078828
0.00143452
0.000769967
0.00112751
0.00163376
0.000795517
0.00145393
0.00151699
0.00164771
0.00180759
0.00274514
0.00183998
0.00246729
0.00172361
0.000394744
0.000193537
0.000343807
0.000239533
0.000223277
0.0269084
0.0260381
0.0215041
0.0237704
0.000326186
0.00014659
0.00028954
0.000195571
0.000237701
0.000339377
5.20737e-05
9.75685e-05
4.00444e-05
6.49532e-05
3.93016e-05
4.37247e-05
4.12655e-05
0.000318295
0.000479942
0.000333173
0.000295198
0.000261064
0.000379054
0.000271644
0.000413533
0.000219605
0.000227005
0.000248408
0.00152403
0.00212693
0.00189217
0.00149486
0.00160504
0.00119028
0.00207879
0.00181538
0.00169934
1.32666e-05
1.41711e-05
1.94837e-05
1.70296e-05
9.27484e-06
1.27956e-05
1.14839e-05
1.42341e-05
1.56124e-05
1.58835e-05
1.67415e-05
8.11009e-06
8.75869e-06
7.14943e-06
5.84391e-06
7.46382e-06
1.12181e-05
7.71559e-06
7.53837e-06
1.12032e-05
0.0184135
0.016354
0.0164469
0.0211367
0.019137
0.0158047
0.016579
0.0145763
1.71854e-05
1.27935e-05
1.28318e-05
9.1945e-06
9.84787e-06
1.15841e-05
1.27019e-05
8.60777e-06
2.56707e-05
1.2881e-05
1.12798e-05
1.13622e-05
1.08118e-05
1.00464e-05
7.03462e-06
7.70974e-06
1.04814e-05
8.23679e-06
7.65877e-06
7.2979e-06
9.5757e-06
2.08049e-05
1.94271e-05
1.54408e-05
2.82156e-05
2.22786e-05
2.11892e-05
3.04624e-05
1.6865e-05
0.0224241
2.80072e-05
2.87835e-05
2.7059e-05
1.63763e-05
2.27314e-05
0.0208098
0.0196963
0.0197158
0.0204591
2.59695e-05
4.19414e-05
6.13208e-06
6.93371e-06
7.43603e-06
6.50264e-06
0.00111903
0.00138712
0.00145719
0.00156178
0.0261175
0.0220268
0.0274147
0.0197356
0.0324439
0.032884
0.0226101
0.0254258
0.0311992
0.0400817
0.0866731
0.0963523
0.0819397
0.0927966
0.0911519
0.083094
0.0875378
0.0775187
0.0654805
0.0990483
0.10041
0.0874735
0.0719125
0.0781534
0.0617721
0.0750842
0.0925396
0.0817888
0.0792989
0.0987543
0.0408487
0.083828
0.0601472
0.0739639
0.00260745
0.00200808
0.00150522
0.00161221
0.00100108
0.0472354
0.0534861
0.0494109
0.000965365
0.00125546
6.96082e-06
7.27353e-06
8.25894e-06
8.6174e-06
6.83667e-06
8.87818e-06
6.96108e-06
1.02262e-05
0.0812745
0.0756033
0.0759527
0.0729417
0.0730989
0.0883678
0.0701727
0.0835582
0.0666711
0.0230176
0.0216331
0.00456693
0.00327426
0.00364323
0.00473626
0.00441032
0.00347947
0.0842571
0.0360148
0.0530859
0.0586975
0.00500726
0.00454158
0.00771581
0.00592806
0.00547279
0.00701518
0.00752392
0.000863285
0.000509418
0.000606049
0.00063466
0.000468428
0.000935395
0.000762873
0.0269731
0.0224745
0.0244083
0.0208794
0.00118412
0.000978967
7.47472e-06
8.09613e-06
6.53557e-06
6.61671e-06
8.30503e-06
7.10711e-06
8.0169e-06
1.01076e-05
1.10528e-05
0.0649726
0.0726398
0.0785528
0.0382654
0.032341
0.0426856
0.0361167
0.0487985
0.035541
0.0419248
0.0308627
0.0359801
0.0318521
0.0298599
0.028688
0.063733
0.0571958
0.0626554
0.0769858
0.0815786
0.0702791
0.0826169
0.092002
0.0937386
0.0131917
0.0130984
0.000135392
0.000107464
9.08068e-05
0.000101963
6.8638e-05
8.98587e-05
6.64151e-05
5.38027e-05
4.15312e-05
6.97929e-05
4.68074e-05
5.82332e-05
5.36172e-05
6.96088e-05
8.46806e-05
6.52924e-05
0.000110527
8.24392e-05
5.4696e-05
4.35932e-05
4.90726e-05
0.030228
0.0297978
0.0272165
0.0283284
0.0326713
0.02952
0.0313788
0.000469951
0.000385171
0.000376486
0.000502055
0.0003548
0.0105598
0.0120969
0.0114124
0.0136833
0.0117124
0.0114103
0.0140065
0.00056085
0.0215391
0.023723
0.0216271
0.000624636
0.000590816
0.0230455
0.0572298
0.00302282
0.00379773
0.00410233
0.00547492
0.00606656
0.0393608
3.71643e-05
0.0107768
0.0107737
0.00860318
0.0125676
0.00670904
0.00782702
1.23752e-05
1.25724e-05
1.01426e-05
1.12666e-05
9.36622e-06
9.89316e-06
8.40488e-06
2.2185e-05
1.54448e-05
1.27832e-05
1.80585e-05
2.06414e-05
1.05122e-05
1.83945e-05
2.1659e-05
0.0698014
0.0574269
0.0797277
0.0725442
0.0630074
0.0563206
0.0548877
0.0867111
0.0521087
0.0760573
0.0848567
0.0685465
0.0536207
0.0607537
0.00125594
0.00125402
0.00160214
0.00152289
0.00101669
0.00107511
0.00107521
0.00085603
0.00862789
0.0112305
0.0106426
0.00749966
0.02736
0.0283507
0.029791
0.013698
0.0110845
0.011977
0.0130722
0.0126282
0.0124618
0.0112107
0.0121444
0.0036183
0.0049225
0.00401875
0.00274252
0.00368213
0.00531378
0.00423283
0.00251049
0.00312085
0.00554145
0.00531312
0.00509429
0.00464831
0.00406191
0.0253223
0.0250309
0.0039274
0.00631888
0.00549771
0.00599658
0.00301048
0.00227596
0.0031067
0.00437562
0.0194863
0.0238344
0.0198435
0.0247596
0.0142251
0.0125914
0.021369
0.0100828
0.0217726
0.0234358
0.0270124
0.0251187
0.0213268
0.0313606
0.0360146
0.0323566
0.0139854
0.0137861
0.0121194
0.0116317
0.0152374
0.0141206
0.012417
0.0106446
0.00239457
0.00174748
0.00171039
0.00270333
0.0022652
0.00219077
0.00143014
0.00126333
0.00109222
0.00128432
0.0643159
0.00914077
0.00965474
0.0114273
0.00885069
0.01004
0.00785418
0.00784902
0.0072144
0.0108542
0.00677625
0.00791354
0.00277843
0.00403868
0.00322732
0.00235258
0.00300976
0.00270948
0.00235144
1.69241e-05
1.29952e-05
1.51043e-05
1.09561e-05
0.0183305
2.41341e-05
2.61538e-05
1.7997e-05
0.0105521
0.0103394
0.0131612
0.0196393
0.0230494
0.0222971
0.0207616
0.0204356
0.0192588
0.0202149
1.92105e-05
0.00339493
0.00240004
0.00254671
0.00449398
0.00463301
0.00393985
0.00347513
0.0488677
0.0568953
0.0046058
0.00458811
0.00293611
0.00292513
0.00406995
0.00349009
0.0219696
7.09071e-06
9.79013e-06
7.56342e-06
1.07471e-05
7.27013e-06
6.69275e-06
5.42286e-06
6.63643e-06
5.7172e-06
5.17165e-06
4.90604e-06
8.82842e-06
8.75847e-06
1.06693e-05
0.000177386
0.000153245
0.000211158
0.000199081
0.000118766
0.000201913
0.000159176
0.000122551
0.00012795
0.000204654
0.00749108
0.00838997
0.0292437
0.042977
0.0332566
0.0258315
0.00799608
0.00532239
1.16492e-05
6.3536e-06
5.37453e-06
5.34198e-06
6.35069e-06
5.96569e-06
8.45112e-06
6.27006e-06
0.0232692
1.29185e-05
9.82514e-06
1.15486e-05
1.01442e-05
1.09085e-05
9.12775e-06
1.24772e-05
1.42966e-05
1.73214e-05
1.37619e-05
1.84654e-05
1.59954e-05
1.60009e-05
1.70862e-05
1.45731e-05
1.78543e-05
4.84219e-05
6.88128e-05
1.30723e-05
8.99029e-06
1.02365e-05
1.47055e-05
1.75378e-05
1.27031e-05
0.0255975
0.0418514
0.0296895
0.0291931
1.79126e-05
0.0146898
0.0150579
0.0203859
0.0215679
0.0121623
0.000133414
0.000216779
0.000156257
0.000305887
0.0308926
0.0378333
0.025038
0.0377962
0.0270865
0.0271601
0.0246208
0.0246069
0.0343135
0.0251082
0.0356635
0.0397021
0.0431452
0.0344004
0.0334693
0.0374102
0.0378336
0.0351337
0.0374361
0.0458506
0.0389588
0.0429909
0.0393873
0.0449757
0.0388595
0.0336187
0.0361454
0.0309897
0.0357408
0.0380733
0.0471429
0.0339458
0.0572242
0.076031
0.0568224
0.0812133
0.0823327
0.026802
0.0303614
0.026763
0.0221872
0.0237294
0.0258441
0.0250638
0.0229869
0.0229575
0.0251598
0.00102546
0.00120905
0.00198821
0.00236769
0.00178177
0.0318424
0.00161961
0.0013717
0.0276814
0.0378528
0.0376589
0.0404589
0.0256422
0.0378628
0.0410767
0.0585334
0.038539
0.0467282
0.034349
0.0264833
0.0408679
0.000184577
0.000390724
0.000175852
0.000159309
0.000260292
0.0001149
0.000105896
0.0235847
0.026357
0.0236222
0.0259505
0.0238758
2.85804e-05
2.28298e-05
2.65341e-05
3.29731e-05
2.50879e-05
2.3832e-05
0.0377711
2.50669e-05
2.37491e-05
0.0293304
0.0333671
0.000809789
0.00060627
0.000824669
0.00055948
0.00054857
0.000997392
0.000862086
0.000743697
0.00061742
0.0261921
0.0391231
0.0218234
0.0209951
1.05106e-05
1.07047e-05
0.00293872
0.0268013
0.0401289
0.0272106
0.00672915
0.00597785
0.0081004
0.0103484
0.00628547
0.0294389
0.00800556
7.10174e-06
5.64492e-06
0.0224022
0.0251351
0.0260509
0.024791
0.0219756
2.43582e-05
1.76386e-05
3.46247e-05
3.16617e-05
2.02054e-05
1.93633e-05
2.19797e-05
2.87278e-05
6.93722e-06
6.60978e-06
7.68267e-06
8.11421e-06
6.70048e-06
1.19008e-05
8.86444e-06
1.37797e-05
1.50267e-05
1.61715e-05
1.35897e-05
7.87762e-06
7.61745e-06
8.7341e-06
7.10432e-06
9.0122e-06
6.60292e-06
0.000968309
0.00107971
0.0010109
0.000854052
0.00140026
0.00124523
0.00138722
0.0243705
0.0261875
0.0257537
0.000153605
0.000132556
0.0320828
0.0330293
0.038726
0.0261823
0.000216713
0.000125623
0.00016514
0.000260229
8.91874e-05
1.40367e-05
1.25645e-05
2.28872e-05
1.70373e-05
1.2059e-05
0.0295741
0.0260951
0.0273125
0.0323366
1.49619e-05
0.00117247
0.000886661
0.000833368
0.000612127
0.0413615
0.0363468
0.0615212
0.0397445
0.0367891
0.0361149
0.0361118
0.0511035
0.000504806
0.00085408
0.0183193
0.014229
0.0181528
5.13892e-05
8.5672e-05
6.99401e-05
3.68855e-05
3.07479e-05
4.02948e-05
4.4017e-05
0.00240349
0.0017558
0.00220129
0.00215243
1.32521e-05
1.1086e-05
9.91133e-06
0.00104868
0.00118769
0.0012015
0.00161908
0.00131759
0.00120874
0.00155214
0.0673828
0.0526541
0.0612623
0.00156323
0.00353851
0.00271267
0.0532241
0.0447585
0.0332366
0.0441917
0.000138267
0.000110991
0.000175817
0.000128553
0.000115481
0.000108958
7.21964e-05
0.000177072
9.06814e-05
0.0933318
0.0734193
0.073912
0.0770887
0.0780706
0.0306581
0.0367244
0.0326615
0.0292296
0.0439111
0.000595591
0.000546082
0.0595111
0.0504549
0.000631798
0.000513383
0.000673527
0.000330727
1.07982e-05
7.91035e-06
1.07844e-05
8.86076e-06
6.33431e-06
7.86577e-06
6.3668e-06
9.22159e-06
6.9922e-06
0.0472673
0.0498387
0.0350035
0.0340025
1.13861e-05
1.21326e-05
0.0480254
0.0339114
0.0593213
0.0364129
0.0600254
0.111443
1.01142e-05
0.00188783
0.00179513
0.00229773
0.00202107
0.0303962
0.00218099
0.00246158
0.001542
0.0213524
0.00153485
0.00221313
0.00207614
0.00172644
0.00148664
0.00221737
0.00186458
0.00125716
1.07585e-05
7.83931e-06
6.6455e-06
7.74335e-06
0.00154709
0.00179872
0.00237892
0.00137955
0.0452151
0.028713
0.0434844
0.0469248
0.0534933
0.0486446
0.0283048
0.0295347
0.0391847
0.0381344
0.000272176
0.000207569
3.16562e-05
3.73688e-05
3.05378e-05
7.02516e-05
4.94427e-05
4.88412e-05
6.50859e-05
0.0335631
2.66602e-05
0.0412059
0.0384018
0.0490968
0.0474552
0.0329096
0.0324071
0.0483818
0.055175
0.0397679
0.0454221
0.0336318
0.0364056
0.0358241
0.0405533
0.035896
0.0465093
0.0326335
0.044148
0.0460219
1.68912e-05
0.00176445
0.00194661
0.00217478
0.0142025
0.0124213
0.0130664
0.0291384
6.28315e-06
5.21269e-06
0.00111367
0.000680894
0.000924039
0.00136195
0.00088135
0.0536202
0.0366875
0.0517122
0.049947
0.0655759
0.0726907
0.0545316
0.0298053
0.053566
7.56159e-06
0.0301206
0.028955
0.0304608
0.0288372
2.15172e-05
0.0288709
0.0310704
0.0391332
0.0383367
0.0959133
0.0830755
0.0867955
0.0909814
0.101088
0.0750159
0.0792988
0.071499
0.0958322
0.0799786
0.0869258
0.0322562
0.036679
0.0316771
0.0345157
0.0478499
0.0312067
0.0315519
0.0427139
0.0390239
0.0467602
0.0509722
0.0147912
0.0123029
0.0128658
0.013197
7.75331e-06
6.02984e-06
9.16408e-06
8.50596e-06
0.0124758
0.0144553
0.0148769
0.0175196
0.0149794
0.0170442
0.0136146
3.85337e-05
1.75737e-05
1.66015e-05
1.5058e-05
1.26087e-05
1.88671e-05
2.17159e-05
0.0113834
0.010182
0.0115838
0.0103656
0.0978512
0.0814447
0.07692
0.0865267
0.0887341
0.0863988
0.0716166
0.106624
0.0010718
0.00129714
0.00144987
4.68286e-06
1.07295e-05
0.000157889
0.000157551
0.000307203
0.000281498
0.000442203
0.00175925
0.00224079
0.00171338
0.00124474
0.00203286
0.00183519
0.00214838
0.00215811
0.00168203
0.000647526
0.000830143
0.00084841
0.000558948
1.52367e-05
0.00655889
0.00568328
0.00491633
0.00735723
0.00468052
0.00372246
0.0337538
0.00510522
0.00495829
0.0808646
0.0722856
0.0103725
0.00979777
0.00727427
0.0642705
0.071888
0.0780659
0.0972002
0.0939795
0.0699095
0.0495926
0.0533723
0.0800506
0.0955239
0.0763656
0.0886876
6.23895e-06
7.18405e-06
9.59405e-06
8.05082e-06
5.83585e-06
6.55437e-06
0.00023606
0.000498073
0.000467852
0.0488217
0.00296499
0.00312979
0.00312136
0.00271112
0.0426016
3.09521e-05
3.98381e-05
3.4674e-05
4.79988e-05
3.00925e-05
2.45369e-05
2.78036e-05
3.28119e-05
2.55522e-05
2.60036e-05
2.89244e-05
3.39009e-05
4.35039e-05
0.0885547
0.0784917
0.0889042
0.086273
0.0362117
0.0848403
0.0900873
0.0489428
0.108783
0.0994394
6.81781e-06
6.49932e-06
8.0969e-06
5.85609e-06
8.56535e-06
5.79735e-06
7.63823e-05
0.000125011
0.000114883
8.48856e-05
7.69723e-05
8.60288e-05
5.93806e-05
5.59287e-05
0.0109052
0.0101158
0.0124671
0.00666881
0.010218
0.0128299
0.0139028
0.0141252
0.00996878
0.00751584
0.00577851
0.075022
0.0704033
0.100104
0.0164682
0.0152176
0.0116556
0.00771095
0.0113125
0.00943279
0.014149
0.0214574
0.017353
0.0171886
0.0241597
4.9999e-05
3.0169e-05
4.62366e-05
0.00259914
0.00294251
0.00193327
0.028739
9.46537e-05
0.000185309
0.0584623
0.0197485
0.0241545
0.0204629
0.0225048
0.0199785
0.0621166
0.0804657
0.089294
0.0209765
0.0237122
0.0210868
4.35947e-05
4.79748e-05
6.68153e-05
4.51991e-05
3.65655e-05
3.8811e-05
5.97175e-05
0.0623288
0.000111165
0.0429067
6.79687e-05
6.42749e-05
0.0579583
0.0584956
0.000114144
0.0222191
0.0256183
0.0208404
0.0235128
0.0359065
0.0331829
0.0574055
0.0227047
1.31538e-05
0.0737523
0.0954009
0.0997964
1.02711e-05
0.0660393
0.033368
0.0469184
0.0523459
0.00285323
0.00181255
0.00640605
0.00457302
0.0029969
6.51551e-06
9.35306e-06
7.53955e-06
5.27822e-06
1.72622e-05
6.7012e-06
3.25349e-05
5.42084e-05
3.96622e-05
0.0375617
2.2083e-05
0.0441916
5.15223e-06
5.61992e-06
6.02241e-06
4.81832e-06
6.36357e-06
0.0787715
0.060334
0.0589745
0.05622
0.0755703
7.24413e-06
0.0588865
0.0619258
0.00337265
0.00315022
0.0026424
0.00275037
0.00302689
0.0047164
0.00363285
0.00332551
0.00309527
0.0631625
0.00449026
0.00379248
0.00315215
0.00492508
0.00403546
0.00342123
0.00361712
0.00241122
0.00276723
0.0246607
0.0230021
0.0228436
0.0252634
0.023659
0.0219476
0.0245582
0.0648554
0.0690278
0.0600013
0.0610302
0.0523305
0.0790926
0.04599
0.0574022
0.0366531
0.0436214
8.16262e-05
0.000117709
7.76136e-05
5.7508e-05
9.37674e-05
6.01504e-05
0.0313083
4.81307e-05
6.43154e-05
0.000106002
0.000160231
0.000164483
1.06226e-05
1.24076e-05
0.000570514
0.000676911
3.68361e-05
5.56198e-05
4.95896e-05
0.000727171
0.000621922
0.000589121
3.16301e-05
4.64251e-05
0.000749795
1.5413e-05
0.0335382
0.0464206
1.20333e-05
7.15441e-06
0.0222994
0.0207363
0.0222861
0.0262048
0.0286198
0.0254095
0.0236789
0.0217832
0.0278187
0.00014895
0.000273396
0.0463401
0.000136692
8.99298e-05
6.70532e-05
5.33733e-05
7.7628e-05
0.0402443
0.0107599
0.0108252
0.0115446
0.0132853
0.0110121
0.0134166
0.00853306
0.00972595
0.00147684
0.00202883
0.00164079
0.000123022
0.00185842
0.00151488
8.04041e-06
5.35904e-06
7.32062e-06
8.37163e-06
0.0324168
0.0308137
0.0270305
0.0408322
0.0371595
0.0264491
0.0342539
0.0400306
0.0280139
0.0376293
0.0388823
0.0269648
0.0243404
0.021715
0.0275962
0.0223914
0.031368
0.00586372
0.00921408
0.0035676
0.000825624
0.000815409
0.0006901
0.00070485
0.00205184
0.00262154
0.00559037
0.00444072
0.00430665
0.00246636
0.00810625
0.00612897
1.12508e-05
7.51544e-06
2.46548e-05
1.88936e-05
1.69262e-05
1.78868e-05
2.20176e-05
0.00650241
0.00420955
0.00464373
0.00284987
0.00277755
0.00377012
0.00396979
0.00303992
0.00278789
0.0420503
0.0444154
1.54809e-05
1.58478e-05
1.40951e-05
0.0276872
0.00294166
0.0148068
0.0188851
0.00183153
0.00224872
0.00253426
0.015834
1.22405e-05
1.43646e-05
1.31521e-05
1.70993e-05
0.0130963
0.0115707
0.0148526
0.013957
0.0012825
0.00229276
0.0288725
0.0270146
0.0280368
0.0312482
0.0315711
0.0293025
0.00963756
0.00880773
0.0138907
0.0170651
0.0175105
0.0206437
0.01796
2.40674e-05
2.11942e-05
3.48875e-05
0.00301063
0.00261855
0.00347659
0.000836764
0.000489292
0.00308157
0.00384398
0.00250443
0.00492497
0.00211064
0.0098701
5.40735e-06
5.76625e-06
5.98419e-06
5.84517e-06
0.00167544
0.00104748
0.00148268
0.00107139
0.0247138
0.0213302
0.00251986
0.0108267
0.00205842
0.00254208
1.31579e-05
1.53869e-05
1.22373e-05
6.65763e-06
0.0256104
0.0192934
0.000160164
0.000240883
0.0208081
0.0303865
0.0157893
5.38272e-06
0.0507466
0.047084
0.0450994
6.89273e-06
5.33549e-06
6.52417e-06
4.62971e-06
0.0244445
0.0251152
0.0245657
0.0301407
0.0233389
0.0255764
0.0294224
0.000362789
0.000639117
0.000443957
0.016199
0.0114625
3.89019e-05
0.0143471
0.0163628
0.0115626
0.0239303
0.0300848
0.0223114
0.00272281
0.0719523
0.0537114
0.0094957
0.00844254
0.00710688
0.0122579
0.0102325
0.010264
0.00764058
0.00887114
0.0106209
0.0114529
0.0148621
0.012846
0.0139158
0.0169576
0.0168364
0.0137506
2.10342e-05
2.37973e-05
3.05453e-05
2.69044e-05
0.0105151
0.00945152
0.00819695
0.0110188
0.0960287
0.0165627
0.0168525
0.0187829
0.0246371
0.0952378
0.000419762
7.87423e-06
6.4874e-06
1.01989e-05
1.92769e-05
1.7329e-05
2.39236e-05
2.26079e-05
0.0736134
1.8897e-05
2.04764e-05
5.66092e-06
5.98958e-06
5.95024e-06
7.05491e-06
5.32372e-06
6.14999e-06
8.62166e-06
7.89375e-06
0.00112649
0.00105584
0.00150188
4.3087e-06
8.40986e-06
0.00331562
0.00360025
0.00489111
0.00514248
0.0249162
0.0400446
6.18282e-06
0.000202712
0.000194178
0.000302463
0.000450284
2.52197e-05
2.90484e-05
3.22598e-05
0.000193936
0.000273228
0.0362598
0.0350272
0.0308523
0.0666436
0.0596018
0.0441124
0.0576025
0.0543534
1.49645e-05
9.29143e-06
1.20042e-05
0.0106233
0.00969939
0.0162426
1.08873e-05
0.00957792
0.0199007
0.0260615
0.0265046
0.0189961
0.0386123
0.0330191
0.0281856
0.0271503
0.0271077
0.0292898
0.0281945
0.0291376
0.0295488
0.0315613
0.0447574
0.0293034
0.0299449
0.0304494
0.0290183
0.0384596
0.0362566
0.0350344
0.0353898
0.0267725
0.0412567
0.00899559
0.00856664
0.00796554
0.00831272
0.00110801
0.00159593
0.0257679
0.0267419
0.0263109
0.0248656
0.000145248
0.00034591
0.000216937
8.3431e-05
0.0243619
0.021133
0.000677485
0.000372566
0.000364498
0.000392778
0.000248649
1.16849e-05
0.0390232
0.0421124
0.120966
0.0793641
0.0200896
0.0304544
0.0243681
0.0277386
0.0348382
0.0318933
0.0295447
0.0304148
0.0259392
0.0271378
0.0273904
0.0269242
0.0281811
0.0368574
0.0332737
0.00136694
0.0298808
0.0338157
0.0277894
0.029798
0.0260796
0.0332135
0.0389505
0.0470957
0.0542456
0.020835
0.0168785
0.011711
0.0524433
0.0372053
0.0238617
0.0281518
0.0349838
0.056887
2.27986e-05
2.47441e-05
3.57397e-05
0.00131664
0.0341031
0.0449795
0.0304155
0.0418215
0.0447807
0.0333121
0.0374016
0.0359103
0.0341083
0.0326208
0.0889032
0.0523046
0.057815
0.0500124
0.0351132
0.0758476
0.0818878
0.105698
0.00673513
0.0045992
0.00317982
0.00272682
0.00185299
0.00393378
0.041249
0.0435779
4.04113e-05
9.84982e-06
0.0442006
0.0443119
0.0100283
0.0105222
0.00963855
0.00998687
0.0313315
0.0281804
0.00594237
0.0069255
0.000922655
0.000778052
0.0282759
0.0268859
0.0266733
0.0311842
0.0340997
0.0328297
0.0304986
0.0481034
0.0483891
0.0328821
0.0851905
0.00586771
0.0478904
0.0554711
0.000423008
0.000300557
0.000433221
0.00087846
0.000624528
1.73393e-05
1.19241e-05
0.0455327
0.0323447
0.000313228
0.000779266
0.000837978
0.00202403
0.00241863
0.00218184
0.000744447
6.11002e-06
0.0577123
7.15249e-05
0.000179887
0.000113989
0.00010062
5.87838e-05
0.058488
6.87189e-05
7.96144e-05
0.000142458
4.80036e-05
0.114398
0.00233328
0.00860734
8.38596e-06
0.00824629
0.00214139
0.0132852
0.00699011
0.0087311
0.00864666
0.00888456
0.00899819
0.00758271
0.0027434
0.00126979
0.000422122
1.10301e-05
1.46781e-05
1.61243e-05
0.00470371
0.00617893
0.0141918
7.39562e-06
5.63955e-06
1.90705e-05
0.0513398
0.0486373
0.0174805
0.0183405
0.000106697
7.60176e-05
6.78616e-05
0.0158632
0.0160637
0.0344338
0.0489386
0.0390913
0.0314399
0.0417627
0.0419979
0.0334789
0.00790559
0.0105339
0.102863
0.0577658
0.0543669
1.00332e-05
0.00835478
0.0427182
0.000917243
0.000774555
0.00111377
0.00140857
5.77344e-06
9.14254e-06
0.019109
4.23857e-05
4.39222e-05
3.58472e-05
0.00974053
0.00935238
0.0867801
0.0641209
0.000155534
0.00014039
0.000245473
0.000279193
0.0469625
0.0309509
0.0276706
0.0185571
0.0278502
0.0258907
0.0245388
0.00985216
0.038581
0.0315726
0.0281995
0.033684
0.0325298
0.0340633
0.0363122
0.0331359
0.0252681
0.0230114
0.0184308
0.00114015
0.0329961
0.04338
0.0308918
0.0194883
0.032385
0.0003346
0.0417456
0.00086934
0.0628039
6.86774e-06
0.0477043
0.0113391
0.0157426
0.0334805
0.0354505
7.06514e-06
0.00692711
0.00841215
0.00836201
0.00317475
0.00322587
0.00268907
0.00221215
0.00935092
0.000311297
0.0003262
3.01638e-05
6.59377e-06
6.24086e-06
1.69409e-05
0.0387459
1.8916e-05
3.02769e-05
4.34911e-05
0.000504536
0.00267982
0.0239305
0.0270615
0.0278535
2.5424e-06
0.00142108
0.00193357
0.00230638
0.00207224
0.00255327
0.0977594
0.0324817
0.00607366
0.0116921
0.0206525
0.0211975
0.0473086
0.031776
0.0184559
0.0177405
0.0399961
0.0371264
0.00363752
2.91645e-05
0.000354235
0.0107238
0.0101767
0.0448068
0.0424597
0.0448016
0.00160084
0.0347031
0.00402431
0.026343
4.90317e-06
0.0667038
0.0257036
0.022567
0.060235
0.139364
0.118763
0.0663831
0.0991237
0.0438167
0.0397281
0.00125133
0.00178171
0.0168931
0.0115604
1.56255e-05
0.036045
0.0341577
0.0338186
1.85594e-05
0.0104006
0.0121579
1.19379e-05
1.11375e-05
0.053543
0.123789
6.11268e-06
0.00049618
0.000100986
2.51734e-05
2.44155e-05
3.48702e-06
5.9739e-06
0.0498864
0.0481089
1.32918e-05
1.053e-05
1.39517e-05
1.66887e-05
9.73144e-06
0.0484884
0.000609755
0.0055952
0.00286854
0.011815
0.0114039
0.011981
0.000796498
0.000675962
0.00104899
0.000694289
0.000610814
0.000525592
0.000555592
0.00038726
0.0574227
1.08935e-05
0.00483014
0.00603853
0.00545701
1.08455e-05
1.35033e-05
1.15642e-05
0.0228624
0.0591823
7.42572e-06
8.48822e-06
5.76523e-06
8.32303e-06
4.99094e-06
0.0483042
0.0471803
0.0689346
0.10829
6.80518e-06
0.0433952
0.0416803
4.27982e-06
4.79941e-06
4.75369e-06
0.0019043
0.0225802
0.00177169
0.00153672
7.07614e-06
0.0212909
0.00055906
0.00110478
0.0164258
0.0177362
6.20526e-06
2.48706e-05
0.00284268
0.00347252
0.00325469
0.003023
0.0439718
0.0448652
0.026496
0.0310983
0.0278762
0.0290902
0.0615127
9.41426e-06
1.06785e-05
9.45069e-06
8.23715e-06
0.0532487
0.0468364
0.0495222
1.50288e-05
0.044804
0.0435174
0.0453015
0.000278275
7.926e-05
0.00229021
0.00239352
0.000854306
0.000747057
0.00197485
0.0471583
0.0583319
3.54346e-05
0.0986142
0.0396893
0.0340019
0.00962294
0.0122893
0.0106458
2.27329e-05
3.90333e-05
0.0195161
0.0190163
0.0546231
0.0188776
0.0195596
0.0134169
0.0105868
0.0481699
0.0499094
0.0478046
0.0824078
0.0567084
0.00145476
0.0602748
0.000184404
0.052899
0.000646513
0.0426494
0.109432
0.0704411
0.109039
0.00238383
0.00149795
0.0307366
0.00254639
0.000284007
0.00146674
0.000490355
0.000882691
0.0121716
0.0284721
0.0427306
0.0462776
0.000698614
0.00221536
0.0302104
0.0111134
0.000852432
0.00221073
0.00216253
0.000425311
0.000619765
1.04638e-05
0.0917543
0.0913506
0.101444
0.0190568
0.019288
0.0178972
1.71182e-05
1.19449e-05
0.0106691
0.0307115
0.0401004
7.20913e-06
2.03691e-05
2.28455e-05
3.11253e-05
2.70052e-05
0.000396788
0.000221886
9.38717e-06
3.09009e-06
0.000182571
0.000687656
0.000259273
0.00113964
0.0169669
0.0170335
1.63318e-05
2.17389e-05
0.010113
0.000147139
0.0139838
0.0139055
0.0144138
0.0438746
0.00108222
0.0142044
0.0267355
6.14831e-05
2.16798e-05
0.00312395
0.00233898
0.00126959
0.00375429
0.0695141
0.0950998
0.0695065
0.0912133
0.0146371
0.0199592
0.0192065
0.00172535
0.00507227
0.00462863
0.0189034
0.0134332
0.00307091
0.00384718
0.0301091
0.0230335
0.0227846
0.00129116
0.0348832
0.00162443
0.00245462
0.00228336
7.51299e-05
0.0454
0.00270539
4.40234e-05
0.0121398
0.0289078
0.019656
0.0163904
0.0304723
0.0311932
3.02033e-06
2.2708e-05
0.0215356
0.0405395
0.0461187
2.50714e-05
0.0207974
0.00332424
8.29133e-06
0.0299179
0.0198454
0.0171802
0.0166791
0.0144648
0.0160903
9.26455e-06
1.11631e-05
1.10501e-05
0.00981479
0.0119987
8.75795e-06
0.0642703
8.4228e-06
1.07699e-05
0.0908005
0.0900105
0.111449
1.11395e-05
1.10658e-05
0.00205303
0.0353238
0.0334478
0.0335713
0.0347204
0.00343103
0.00269084
0.00430325
0.0387283
0.00569879
0.0479264
0.0395203
0.0319547
0.0143763
0.0224488
0.0343025
0.117304
0.00278888
1.11464e-05
4.43759e-06
1.50315e-05
1.15473e-05
0.010132
0.00981787
0.0279733
0.0065038
5.18333e-06
0.00180435
6.83226e-06
1.77156e-05
0.0421062
0.0408398
0.0352453
0.0318547
1.11132e-05
2.07495e-05
0.000414466
0.00962818
0.0106177
0.00210512
0.000363165
0.00486827
0.00106389
4.38338e-06
0.0015118
0.0366092
0.0354994
0.0193834
0.0165006
5.55583e-05
0.00225396
0.0325291
0.0326395
0.0362234
0.00825511
0.0351355
0.0341066
0.045584
0.0378924
0.0229558
1.83377e-05
6.88878e-06
0.0364441
0.030283
0.0359589
0.0473013
0.0842951
0.0336708
0.0433417
0.0433922
0.0181172
0.0182961
0.0331864
8.3026e-06
0.0494591
0.0471339
0.0735407
0.0616282
0.0570419
0.0585852
0.0527763
2.06915e-05
1.15189e-05
0.000986955
0.021664
0.0220179
1.72996e-05
0.0367429
0.0384248
0.0300921
0.0419704
0.00271946
0.0436565
0.044644
0.0420306
0.00187762
0.0393035
0.036549
0.0229669
0.0142992
0.04045
0.0398201
0.0400264
0.0432084
0.0589647
0.0645927
0.0515543
0.0904543
0.0513728
0.0204148
0.0574007
0.0552821
0.0306366
0.130369
0.0712472
0.00194215
0.0928725
0.105328
0.00101858
0.137031
0.152581
0.147496
0.0453421
0.0243777
0.0252057
0.024427
0.0224727
0.110787
0.092834
0.0643315
0.053097
0.00993895
0.128638
0.136631
0.0219831
0.0160544
0.00976187
0.0263962
0.000583218
0.0160418
0.0423811
0.0173021
0.080769
0.0263188
0.0250666
0.0181598
0.121039
0.0357404
0.0325694
0.0357191
0.0887338
0.0184629
0.00852441
0.0371363
0.0920185
0.0347428
0.0526808
0.0011626
0.0451409
0.0908019
0.0555646
0.049553
3.0405e-05
0.00242141
0.0610763
0.0709606
0.079374
0.0165679
0.0514351
0.0204104
0.127858
0.0841611
0.0711373
0.135297
0.12009
0.139068
0.131529
0.0788473
0.104191
0.0845244
0.0143151
0.0470506
0.0349617
0.0341095
