# vtk DataFile Version 3.0
The density field of the optimized results
ASCII
DATASET UNSTRUCTURED_GRID

POINTS	625	double
0.0286679		0.988668		0.213674
1.02746		0.9926		0.151801
2.02369		0.996366		0.0946426
2.01967		1.99641		0.0909717
3.01961		1.99902		0.0442777
3.01948		0.998318		0.0481624
4.01127		1.00121		0.0139263
5.00359		0.99964		0.00027728
5		0		0
4.01235		-0.00148241		0.0151932
3.02186		-0.0028621		0.0484406
2.02725		-0.00498302		0.096676
1.03132		-0.00791693		0.153033
0.0325688		-0.0112953		0.214807
-0.0325155		0.987897		-0.785399
0.969086		0.990855		-0.848406
1.97373		0.993692		-0.90487
1.97298		1.99339		-0.908993
2.97308		1.99608		-0.955639
2.97769		0.996594		-0.952494
3.98795		0.998103		-0.985087
5		1		-1
5		0		-1
3.98923		0.000802456		-0.985672
2.98098		-0.00208882		-0.951173
1.97585		-0.00504661		-0.903777
0.972447		-0.00867644		-0.846839
-0.028549		-0.0124043		-0.785096
0.530341		0.490549		0.18297
1.02944		0.492361		0.152544
0.528294		0.990687		0.182243
0.0306063		0.488704		0.213885
0.532267		-0.00954376		0.183599
1.52796		0.494061		0.123367
1.52612		0.994342		0.122763
1.52937		-0.00640871		0.123838
2.02575		0.495659		0.0960883
2.52501		-0.00390701		0.071406
2.52313		0.496801		0.0711603
3.02027		0.497831		0.0487818
2.52199		0.997551		0.0703956
2.52097		1.49777		0.0690646
2.51965		1.99777		0.0675845
2.0211		1.49639		0.0925631
3.02074		1.49886		0.0458935
3.51658		0.498905		0.0298631
3.51553		0.999614		0.029862
3.51704		-0.0022115		0.0295216
4.01154		0.499859		0.0152955
4.5076		-0.000975904		0.005396
4.50637		0.500045		0.00536104
5.00403		0.499626		0.000194412
4.50662		1.001		0.00524682
0.46807		0.989225		-0.817593
0.469965		0.489336		-0.816865
-0.0303668		0.48757		-0.786104
0.9707		0.491132		-0.847544
0.471795		-0.0105685		-0.81628
1.47237		0.492806		-0.876721
1.47371		-0.00684505		-0.87623
1.47086		0.992371		-0.877477
1.97461		0.494269		-0.903889
2.47555		0.994775		-0.929506
2.47722		0.495662		-0.928256
1.97417		1.49341		-0.907431
2.47431		1.49466		-0.93096
2.47299		1.99469		-0.932365
2.97457		1.49617		-0.954098
2.97975		0.497284		-0.951416
2.47834		-0.00370194		-0.928146
3.48364		0.498611		-0.970531
3.48466		-0.000473251		-0.970685
3.48272		0.997595		-0.970728
3.98874		0.499352		-0.984666
4.49348		0.998317		-0.994554
4.49401		0.499764		-0.9934
4.99799		0.500293		-0.999599
4.49433		0.000466813		-0.994153
0.498389		0.989918		-0.317731
-0.00163982		0.98815		-0.286544
0.998456		0.99176		-0.348619
1.49853		0.993397		-0.377615
1.99875		0.99504		-0.405445
2.49632		1.99623		-0.432405
1.99631		1.99489		-0.409017
2.99634		1.99754		-0.455712
3.49914		0.998697		-0.471048
2.9991		0.997624		-0.452804
3.99949		0.999763		-0.486441
4.50039		0.99977		-0.495558
4.99981		1.00028		-0.500396
0.00188422		-0.0118382		-0.285426
0.501912		-0.0100312		-0.31644
1.00189		-0.00828813		-0.347089
1.50181		-0.00662833		-0.376429
2.00152		-0.00504559		-0.403993
2.50147		-0.00378293		-0.428722
3.00149		-0.00251559		-0.451953
3.50123		-0.00137653		-0.471119
4.00068		-0.000365213		-0.486115
4.50048		-0.000108543		-0.495117
5.00013		-0.000161392		-0.500072
5.57129e-05		0.488174		-0.286213
1.99767		1.49489		-0.407451
2.99763		1.49755		-0.45412
5.00037		0.499942		-0.499954
0.500156		0.48995		-0.317049
1.00024		0.491756		-0.347638
2.49907		0.996209		-0.429794
2.49763		1.49622		-0.431003
1.50003		0.493402		-0.376901
2.50014		0.496178		-0.428855
1.99997		0.495129		-0.404756
4.50005		0.499776		-0.494775
3.99965		0.499952		-0.486513
3.49986		0.498684		-0.470785
3.00017		0.497569		-0.451806
0.279569		0.739602		0.198129
0.529361		0.740608		0.182637
0.278536		0.989663		0.197831
0.780945		0.241379		0.167954
1.03037		0.242237		0.15282
0.77999		0.491487		0.167663
0.779012		0.741557		0.167326
1.02845		0.742486		0.152183
0.77795		0.991656		0.16691
0.0296358		0.738655		0.213603
0.28053		0.489616		0.198423
0.0316425		0.23877		0.214591
0.28251		-0.0104036		0.199131
0.281494		0.239639		0.198809
0.531306		0.240511		0.183318
0.781898		-0.00872796		0.168236
1.27773		0.743326		0.137463
1.27685		0.993465		0.13714
1.27965		0.243086		0.138058
1.27879		0.493227		0.13779
1.52705		0.744187		0.123055
1.77617		0.745072		0.109058
1.77515		0.995284		0.108686
1.77696		0.494878		0.10943
2.02493		0.746032		0.0954702
1.28037		-0.00715804		0.138271
1.52872		0.243857		0.123648
1.7776		0.244622		0.109749
1.7783		-0.0056359		0.109902
2.02655		0.245317		0.0965179
2.27448		0.496276		0.0833633
2.2736		0.746629		0.0828643
2.27617		-0.00439006		0.0837885
2.27541		0.245914		0.0836721
2.5241		0.246438		0.0714616
2.77364		-0.00343403		0.059717
2.77265		0.246998		0.0596588
2.52252		0.747179		0.0708654
2.27281		0.996986		0.0823485
3.02103		0.24752		0.048779
2.77178		0.49734		0.0596544
2.77119		0.747725		0.0593158
3.01964		0.748107		0.0485218
2.77099		0.998102		0.0588893
2.27192		1.24713		0.0816046
2.27106		1.49712		0.0808087
2.02203		1.24634		0.0934839
2.77026		1.74839		0.0566674
2.76963		1.99839		0.0559236
2.52031		1.74776		0.0683407
2.27035		1.74711		0.0800422
2.26966		1.99711		0.079275
2.02036		1.74641		0.0917483
2.52158		1.24773		0.0697641
3.02094		1.24866		0.0468297
2.77119		1.24829		0.0581678
2.77082		1.49837		0.0574502
3.02024		1.74898		0.0450732
3.2677		0.748618		0.0388297
3.26741		0.998987		0.038713
3.26913		0.248027		0.0388452
3.26858		0.498378		0.0388991
3.51604		0.74924		0.0298449
3.76406		0.749921		0.0218019
3.76358		1.00036		0.0217206
3.76425		0.499413		0.0219057
4.01137		0.750578		0.0147061
3.26939		-0.00258311		0.0386188
3.5169		0.248402		0.0297903
3.76443		0.248831		0.0218709
3.76465		-0.00175176		0.0215566
4.01201		0.249139		0.0154686
4.25887		0.499995		0.00990041
4.2586		0.750366		0.00930708
4.26		-0.00129171		0.00965442
4.25938		0.249336		0.010006
4.50716		0.249603		0.00548969
4.75475		-0.00086845		0.0024115
4.75433		0.250031		0.00262671
4.50616		0.750379		0.00536518
4.25895		1.00096		0.00906813
5.00387		0.249399		0.000162498
4.75457		0.499817		0.00263541
4.7534		0.750227		0.00267187
5		0.75		0
4.7545		1.00094		0.00285628
0.217788		0.988529		-0.801939
0.218757		0.738494		-0.80176
-0.031429		0.737704		-0.785962
0.718455		0.990007		-0.833021
0.719394		0.740138		-0.832564
0.469029		0.739268		-0.817227
0.21974		0.488457		-0.801498
0.220642		0.238471		-0.801119
-0.0294879		0.23757		-0.785516
0.969875		0.741021		-0.847954
0.720274		0.490216		-0.832228
0.97153		0.241233		-0.847203
0.722076		-0.00963346		-0.831624
0.721112		0.24028		-0.831941
0.470838		0.239395		-0.816569
0.22161		-0.0114921		-0.800791
1.22077		0.741797		-0.862654
1.22142		0.492		-0.862263
1.72406		0.243796		-0.890433
1.72466		-0.00596928		-0.890237
1.47302		0.242995		-0.876432
1.2222		0.24211		-0.861946
1.22297		-0.00773883		-0.861694
1.21992		0.991591		-0.863058
1.47165		0.742616		-0.877046
1.72207		0.993092		-0.891444
1.97398		0.743986		-0.904288
1.72271		0.743385		-0.890949
1.72331		0.493605		-0.890564
1.97529		0.244627		-0.903779
2.22472		0.994142		-0.91749
2.22514		0.744511		-0.916902
2.72642		0.995552		-0.941169
2.72775		0.746038		-0.940294
2.47644		0.745139		-0.928783
2.22594		0.494874		-0.916431
2.22659		0.245332		-0.916107
1.9745		1.2435		-0.906427
2.22469		1.24401		-0.918358
1.97361		1.74339		-0.908243
2.22361		1.74403		-0.919946
2.22422		1.49401		-0.919193
2.47496		1.24465		-0.930225
2.72536		1.2454		-0.941942
2.22298		1.99403		-0.920683
2.47365		1.74469		-0.931668
2.72303		1.99537		-0.944019
2.97378		1.7461		-0.954872
2.72372		1.74537		-0.943289
2.72443		1.49537		-0.942602
2.97573		1.24632		-0.953267
2.9791		0.746951		-0.951808
2.72841		0.496392		-0.939975
2.98013		0.247604		-0.951337
2.72959		-0.0029097		-0.939842
2.72869		0.246642		-0.939977
2.47767		0.246018		-0.928182
2.22714		-0.00439625		-0.916063
3.23113		0.747613		-0.961606
3.23167		0.498027		-0.961231
3.73631		0.249564		-0.978538
3.73688		0.000107589		-0.978624
3.4841		0.249019		-0.970418
3.23195		0.248461		-0.961196
3.23272		-0.0011151		-0.961319
3.23037		0.997055		-0.961808
3.48333		0.748164		-0.970493
3.73515		0.997957		-0.97858
3.98838		0.748764		-0.984776
3.73569		0.748577		-0.978271
3.73591		0.499099		-0.97815
3.98913		0.250054		-0.985027
4.24069		0.99826		-0.990576
4.241		0.748917		-0.990087
4.74636		0.998768		-0.997484
4.74689		0.749583		-0.996826
4.49399		0.749039		-0.993803
4.2415		0.499492		-0.989736
4.24193		0.250209		-0.989571
5		0.75		-1
4.74614		0.499917		-0.996797
5		0.25		-1
4.74689		0.000506045		-0.997238
4.74641		0.250017		-0.997188
4.49426		0.250207		-0.993661
4.24186		0.000726675		-0.990164
0.263401		0.989319		-0.0521382
0.248358		0.989057		-0.302139
0.0134217		0.988431		-0.0363897
0.733586		0.990413		-0.583135
0.483362		0.989578		-0.567668
0.23328		0.988771		-0.552056
-0.0168126		0.98795		-0.536046
0.513289		0.9903		-0.0677916
1.01292		0.9922		-0.0984558
0.763211		0.991254		-0.0831593
0.74846		0.990825		-0.333185
0.983897		0.991289		-0.598589
1.26252		0.993021		-0.113124
1.76165		0.994811		-0.141595
1.51209		0.993891		-0.12754
1.24849		0.992567		-0.363345
1.23438		0.992081		-0.613219
2.01118		0.995648		-0.155488
1.74853		0.994229		-0.391737
1.98632		0.994427		-0.655247
1.73542		0.993641		-0.641665
1.48485		0.992849		-0.627677
2.25798		1.99634		-0.170727
2.00798		1.99564		-0.159026
2.75798		1.99764		-0.194072
2.50798		1.997		-0.182416
2.24631		1.99557		-0.420721
2.23465		1.9948		-0.670703
1.98464		1.99414		-0.659006
3.00797		1.99827		-0.205719
2.74632		1.99689		-0.444073
2.9847		1.99681		-0.705688
2.73467		1.99612		-0.69407
2.48466		1.99545		-0.682397
3.25807		0.99857		-0.211963
3.00935		0.997946		-0.202478
3.75605		0.999961		-0.228874
3.50696		0.999223		-0.220842
3.24913		0.998136		-0.462467
3.23993		0.997592		-0.712238
2.98861		0.997173		-0.702752
4.00527		1.00059		-0.236455
3.74911		0.999237		-0.479184
3.99378		0.998872		-0.736005
3.74222		0.998467		-0.729051
3.49108		0.998021		-0.721223
4.25457		1.00039		-0.241456
4.24996		0.999749		-0.491611
4.74897		0.999482		-0.74828
4.49711		0.999076		-0.745283
4.24547		0.998977		-0.741299
4.50322		1.00055		-0.24545
5		1		-0.25
4.75184		1.00064		-0.248002
4.75018		1.00018		-0.498228
4.99913		1.00003		-0.75009
0.51701		-0.00978478		-0.0664566
0.766832		-0.00894397		-0.0818573
0.0171627		-0.0114893		-0.0351058
0.267099		-0.0106446		-0.0509087
0.251874		-0.010926		-0.300925
-0.0132673		-0.0121614		-0.535427
0.23679		-0.0112186		-0.550894
0.751894		-0.00916365		-0.331849
1.01653		-0.00812578		-0.0970676
0.486856		-0.0102954		-0.566382
0.736995		-0.00939804		-0.581759
0.987247		-0.00845516		-0.597
1.25186		-0.0074458		-0.361906
1.26617		-0.00730527		-0.111882
1.23755		-0.00749776		-0.611838
1.48787		-0.00671713		-0.626454
1.73835		-0.00587548		-0.640416
1.76506		-0.00574953		-0.140376
2.01431		-0.005113		-0.153693
1.51565		-0.00652554		-0.12634
1.75169		-0.00579758		-0.390498
1.98878		-0.0050328		-0.653986
2.51306		-0.00383419		-0.178832
2.76242		-0.00329294		-0.190478
2.26355		-0.00447687		-0.16649
2.25143		-0.0043778		-0.416621
2.23937		-0.00428463		-0.666429
2.75149		-0.00318427		-0.440453
3.01164		-0.00268477		-0.201906
2.49006		-0.00366648		-0.678526
2.74064		-0.00307563		-0.690321
2.99142		-0.00228745		-0.701687
3.25137		-0.00191175		-0.461875
3.26061		-0.00221785		-0.211796
3.24224		-0.00133421		-0.711718
3.49302		-0.000915224		-0.721187
3.74412		-0.000352166		-0.729052
3.75805		-0.00132627		-0.229007
4.00658		-0.00107356		-0.235615
3.50931		-0.00179529		-0.220894
3.75099		-0.000809745		-0.479244
3.99505		0.000217758		-0.736067
4.50363		-0.000604744		-0.245119
4.75221		-0.00033947		-0.248108
4.25512		-0.000761746		-0.240893
4.25054		-9.6657e-06		-0.491186
4.24618		0.000522393		-0.740821
4.75006		-2.83355e-06		-0.498194
5		0		-0.25
4.49743		0.000125554		-0.744905
4.74845		0.00026816		-0.747844
5		0		-0.75
-0.00077971		0.738159		-0.286427
0.0143557		0.738445		-0.0363763
-0.0159325		0.737852		-0.536314
-0.0150999		0.487875		-0.536174
-0.0142053		0.237891		-0.535693
0.0152857		0.488415		-0.0361678
0.000986089		0.238136		-0.285811
0.0162373		0.238433		-0.0356262
2.00867		1.74564		-0.158249
1.98531		1.74414		-0.658245
1.99699		1.74489		-0.408251
2.00939		1.49561		-0.157422
2.01029		1.24561		-0.156532
1.99824		1.24495		-0.406514
1.9859		1.49417		-0.657435
1.98638		1.24426		-0.656474
3.00918		1.49819		-0.204104
3.00862		1.74825		-0.20492
3.0096		1.24811		-0.203254
2.99827		1.24754		-0.453345
2.98705		1.24699		-0.703325
2.99701		1.74755		-0.454911
2.98608		1.49687		-0.704128
2.98539		1.74683		-0.704895
5		0.75		-0.25
5		0.25		-0.25
5.00203		0.499796		-0.249918
4.99976		0.750004		-0.500236
5		0.75		-0.75
5.00021		0.24996		-0.500075
4.99914		0.250146		-0.74981
4.99915		0.500242		-0.749693
0.264335		0.739335		-0.0519099
0.515187		0.490249		-0.0670847
0.736196		0.240576		-0.582012
0.751086		0.240853		-0.332117
0.765967		0.24112		-0.0821184
0.265248		0.489336		-0.0516259
0.516129		0.240249		-0.066746
0.251013		0.239067		-0.301274
0.250075		0.489065		-0.301635
0.235895		0.23879		-0.551222
0.486005		0.239677		-0.566663
0.234968		0.488769		-0.551581
0.24924		0.73905		-0.301914
0.484232		0.739612		-0.567323
0.514252		0.740276		-0.0674108
0.986451		0.241524		-0.597283
0.750201		0.490857		-0.332422
0.764128		0.741199		-0.0827764
1.01388		0.742125		-0.097956
1.01566		0.241971		-0.0972909
1.00103		0.241739		-0.347385
1.01477		0.492046		-0.0975939
0.499274		0.739932		-0.317387
0.735335		0.490536		-0.582361
0.734459		0.740502		-0.582719
0.985565		0.491458		-0.597626
0.984702		0.741393		-0.598077
0.999305		0.741753		-0.348075
2.48669		1.24542		-0.680326
2.73795		0.996248		-0.6914
2.23595		1.49478		-0.66923
2.24831		1.24555		-0.418523
2.26095		0.99625		-0.167806
2.73686		1.24616		-0.691978
2.2601		1.24632		-0.168515
2.49832		1.24622		-0.430373
2.73605		1.49614		-0.692621
2.73535		1.74613		-0.693319
2.48531		1.74544		-0.681669
2.23531		1.74479		-0.669955
2.24763		1.49555		-0.419248
1.26532		0.242821		-0.112112
1.26346		0.742975		-0.112699
1.26442		0.492898		-0.112385
1.5009		0.243382		-0.376658
1.73743		0.244011		-0.640639
1.23674		0.242398		-0.612106
1.25016		0.492605		-0.362461
1.48705		0.243199		-0.626618
2.76185		0.246968		-0.190563
2.26155		0.746084		-0.167228
2.51151		0.496469		-0.178962
2.75072		0.246799		-0.440466
2.74005		0.246762		-0.690178
2.51231		0.246352		-0.178771
1.98797		0.244904		-0.654309
2.25064		0.245594		-0.416785
2.26205		0.495911		-0.166927
2.01203		0.745605		-0.155056
2.23874		0.245506		-0.666536
2.25005		0.495646		-0.417001
2.48939		0.246079		-0.678547
1.98732		0.494727		-0.654374
1.98675		0.744586		-0.654717
1.99943		0.745098		-0.404936
2.2381		0.495298		-0.66677
2.24952		0.745621		-0.417356
2.48803		0.745729		-0.679116
2.24894		0.995604		-0.417831
2.48742		0.99551		-0.67971
2.23694		0.994899		-0.667723
1.51486		0.243626		-0.126558
1.76354		0.49455		-0.14086
1.75089		0.244225		-0.390694
1.5131		0.743811		-0.127127
1.76268		0.744688		-0.141199
1.75003		0.49424		-0.390972
2.01283		0.495344		-0.154355
2.00078		0.245043		-0.404251
2.01363		0.245109		-0.15386
1.48565		0.743019		-0.627234
1.74929		0.744261		-0.391221
1.73663		0.493917		-0.640933
1.23517		0.742222		-0.61282
1.48627		0.493104		-0.626905
1.24927		0.742588		-0.362871
4.75033		0.750045		-0.497984
4.75237		0.500105		-0.247846
4.5032		0.750144		-0.245217
4.74864		0.749841		-0.747934
4.25428		0.75007		-0.241004
4.50011		0.749762		-0.495214
4.74849		0.499854		-0.747508
4.74874		0.249916		-0.747563
4.75039		0.249997		-0.497866
4.75229		0.250002		-0.247892
4.50316		0.499963		-0.244934
4.00568		0.499844		-0.23571
4.00541		0.750426		-0.236426
4.00629		0.249376		-0.235425
4.00022		0.249814		-0.486072
3.99452		0.250088		-0.736146
4.25385		0.499869		-0.240869
4.25046		0.24996		-0.490993
4.50341		0.249808		-0.244849
3.26002		0.248098		-0.211628
3.25865		0.748393		-0.21162
3.25933		0.498252		-0.211545
3.50048		0.248641		-0.470946
3.74332		0.2494		-0.728886
3.01095		0.247526		-0.201565
2.99074		0.247607		-0.701631
3.00067		0.247532		-0.451857
3.01022		0.497716		-0.201636
3.0096		0.747866		-0.201946
3.24161		0.248355		-0.711591
3.25012		0.498168		-0.461706
3.49243		0.248849		-0.720881
2.76008		0.997503		-0.191396
2.51053		0.996929		-0.179751
2.74905		0.996882		-0.441482
2.99957		0.747574		-0.452254
2.98954		0.747335		-0.702136
2.99022		0.497453		-0.701722
2.76042		0.747346		-0.190946
2.75016		0.496881		-0.440608
2.51101		0.746715		-0.179302
2.73951		0.496634		-0.690376
2.4996		0.7462		-0.429309
2.7388		0.74648		-0.690824
4.24626		0.25008		-0.740566
4.49744		0.249903		-0.744493
4.24967		0.499826		-0.490992
3.4918		0.498625		-0.720888
3.24955		0.748183		-0.461963
3.24064		0.747942		-0.71191
3.49173		0.748418		-0.72091
3.74951		0.749326		-0.478822
3.74264		0.499123		-0.728942
3.99408		0.749326		-0.735738
3.99978		0.749896		-0.48621
3.99423		0.499652		-0.735711
3.50886		0.248559		-0.220696
3.75723		0.499365		-0.228717
3.75044		0.24923		-0.479039
3.50777		0.74901		-0.220588
3.7568		0.749698		-0.228756
3.74985		0.499265		-0.478978
2.24699		1.74557		-0.41997
2.50863		1.74699		-0.181667
2.25935		1.49633		-0.169215
2.74698		1.74688		-0.443342
2.75861		1.74764		-0.193349
2.50929		1.497		-0.180993
4.24592		0.499695		-0.740509
4.24997		0.749806		-0.491249
4.49705		0.749548		-0.744613
2.75923		1.49764		-0.192585
2.50994		1.24699		-0.180339
2.74832		1.24689		-0.441988
0.501043		0.239971		-0.316736
0.234114		0.738749		-0.551848
0.26619		0.239346		-0.0512654
0.765039		0.491166		-0.0824264
0.749314		0.740853		-0.332779
2.48599		1.49544		-0.681
1.25098		0.24259		-0.362128
2.50064		0.246192		-0.428731
2.23744		0.745091		-0.667136
1.51402		0.493728		-0.126833
1.76435		0.244399		-0.140563
2.26288		0.245722		-0.166649
1.7361		0.743794		-0.641166
1.2359		0.492318		-0.612461
1.49932		0.743418		-0.377238
4.75033		0.500041		-0.497823
4.25465		0.249623		-0.240742
3.25063		0.248163		-0.461664
2.74966		0.746962		-0.440988
4.50044		0.249908		-0.494856
3.24097		0.498206		-0.71166
3.74269		0.748826		-0.72874
3.50839		0.498811		-0.220619
2.49698		1.74622		-0.431673
4.75194		0.750201		-0.247835
2.23652		1.2448		-0.668448
2.25866		1.74633		-0.169966
2.48881		0.495941		-0.678695
3.75769		0.249001		-0.228764
0.485125		0.489648		-0.566986
4.24568		0.74939		-0.740703
2.76096		0.497131		-0.190658
2.75976		1.24761		-0.191926
2.74763		1.4969		-0.442616
3.49961		0.748731		-0.470876
4.49736		0.499708		-0.744287
CELLS	2304	11520
4	0	429	117	398
4	429	106	430	437
4	117	430	28	434
4	398	437	434	102
4	429	430	117	437
4	398	434	437	117
4	430	437	434	117
4	429	437	117	398
4	106	431	432	439
4	431	26	356	215
4	432	356	93	355
4	439	215	355	57
4	431	356	432	215
4	439	355	215	432
4	356	215	355	432
4	431	215	432	439
4	28	433	120	435
4	433	93	353	352
4	120	353	12	346
4	435	352	346	92
4	433	353	120	352
4	435	346	352	120
4	353	352	346	120
4	433	352	120	435
4	102	438	436	401
4	438	57	354	218
4	436	354	92	351
4	401	218	351	27
4	438	354	436	218
4	401	351	218	436
4	354	218	351	436
4	438	218	436	401
4	106	432	430	439
4	432	93	433	355
4	430	433	28	589
4	439	355	589	57
4	432	433	430	355
4	439	589	355	430
4	433	355	589	430
4	432	355	430	439
4	102	436	438	434
4	436	92	354	435
4	438	354	57	589
4	434	435	589	28
4	436	354	438	435
4	434	589	435	438
4	354	435	589	438
4	436	435	438	434
4	93	355	352	433
4	355	57	354	589
4	352	354	92	435
4	433	589	435	28
4	355	354	352	589
4	433	435	589	352
4	354	589	435	352
4	355	589	352	433
4	106	439	430	437
4	439	57	589	438
4	430	589	28	434
4	437	438	434	102
4	439	589	430	438
4	437	434	438	430
4	589	438	434	430
4	439	438	430	437
4	27	210	211	401
4	210	54	209	440
4	211	209	55	400
4	401	440	400	102
4	210	209	211	440
4	401	400	440	211
4	209	440	400	211
4	210	440	211	401
4	54	207	208	442
4	207	15	206	292
4	208	206	53	293
4	442	292	293	78
4	207	206	208	292
4	442	293	292	208
4	206	292	293	208
4	207	292	208	442
4	55	204	205	399
4	204	53	203	294
4	205	203	14	295
4	399	294	295	79
4	204	203	205	294
4	399	295	294	205
4	203	294	295	205
4	204	294	205	399
4	102	441	397	398
4	441	78	290	289
4	397	290	79	291
4	398	289	291	0
4	441	290	397	289
4	398	291	289	397
4	290	289	291	397
4	441	289	397	398
4	54	208	209	442
4	208	53	204	293
4	209	204	55	590
4	442	293	590	78
4	208	204	209	293
4	442	590	293	209
4	204	293	590	209
4	208	293	209	442
4	102	397	441	400
4	397	79	290	399
4	441	290	78	590
4	400	399	590	55
4	397	290	441	399
4	400	590	399	441
4	290	399	590	441
4	397	399	441	400
4	53	293	294	204
4	293	78	290	590
4	294	290	79	399
4	204	590	399	55
4	293	290	294	590
4	204	399	590	294
4	290	590	399	294
4	293	590	294	204
4	54	442	209	440
4	442	78	590	441
4	209	590	55	400
4	440	441	400	102
4	442	590	209	441
4	440	400	441	209
4	590	441	400	209
4	442	441	209	440
4	27	350	351	401
4	350	91	349	403
4	351	349	92	436
4	401	403	436	102
4	350	349	351	403
4	401	436	403	351
4	349	403	436	351
4	350	403	351	401
4	91	347	348	404
4	347	13	129	128
4	348	129	32	130
4	404	128	130	31
4	347	129	348	128
4	404	130	128	348
4	129	128	130	348
4	347	128	348	404
4	92	345	346	435
4	345	32	132	131
4	346	132	12	120
4	435	131	120	28
4	345	132	346	131
4	435	120	131	346
4	132	131	120	346
4	345	131	346	435
4	102	402	434	398
4	402	31	127	126
4	434	127	28	117
4	398	126	117	0
4	402	127	434	126
4	398	117	126	434
4	127	126	117	434
4	402	126	434	398
4	91	348	349	404
4	348	32	345	130
4	349	345	92	591
4	404	130	591	31
4	348	345	349	130
4	404	591	130	349
4	345	130	591	349
4	348	130	349	404
4	102	434	402	436
4	434	28	127	435
4	402	127	31	591
4	436	435	591	92
4	434	127	402	435
4	436	591	435	402
4	127	435	591	402
4	434	435	402	436
4	32	130	131	345
4	130	31	127	591
4	131	127	28	435
4	345	591	435	92
4	130	127	131	591
4	345	435	591	131
4	127	591	435	131
4	130	591	131	345
4	91	404	349	403
4	404	31	591	402
4	349	591	92	436
4	403	402	436	102
4	404	591	349	402
4	403	436	402	349
4	591	402	436	349
4	404	402	349	403
4	0	429	119	117
4	429	106	443	430
4	119	443	30	118
4	117	430	118	28
4	429	443	119	430
4	117	118	430	119
4	443	430	118	119
4	429	430	119	117
4	106	431	445	432
4	431	26	444	356
4	445	444	107	449
4	432	356	449	93
4	431	444	445	356
4	432	449	356	445
4	444	356	449	445
4	431	356	445	432
4	30	446	125	123
4	446	107	447	450
4	125	447	1	124
4	123	450	124	29
4	446	447	125	450
4	123	124	450	125
4	447	450	124	125
4	446	450	125	123
4	28	433	122	120
4	433	93	448	353
4	122	448	29	121
4	120	353	121	12
4	433	448	122	353
4	120	121	353	122
4	448	353	121	122
4	433	353	122	120
4	106	445	443	432
4	445	107	446	449
4	443	446	30	592
4	432	449	592	93
4	445	446	443	449
4	432	592	449	443
4	446	449	592	443
4	445	449	443	432
4	28	122	433	118
4	122	29	448	123
4	433	448	93	592
4	118	123	592	30
4	122	448	433	123
4	118	592	123	433
4	448	123	592	433
4	122	123	433	118
4	107	449	450	446
4	449	93	448	592
4	450	448	29	123
4	446	592	123	30
4	449	448	450	592
4	446	123	592	450
4	448	592	123	450
4	449	592	450	446
4	106	432	443	430
4	432	93	592	433
4	443	592	30	118
4	430	433	118	28
4	432	592	443	433
4	430	118	433	443
4	592	433	118	443
4	432	433	443	430
4	0	289	119	429
4	289	78	296	451
4	119	296	30	443
4	429	451	443	106
4	289	296	119	451
4	429	443	451	119
4	296	451	443	119
4	289	451	119	429
4	78	292	299	453
4	292	15	300	212
4	299	300	80	455
4	453	212	455	56
4	292	300	299	212
4	453	455	212	299
4	300	212	455	299
4	292	212	299	453
4	30	298	125	446
4	298	80	297	456
4	125	297	1	447
4	446	456	447	107
4	298	297	125	456
4	446	447	456	125
4	297	456	447	125
4	298	456	125	446
4	106	452	445	431
4	452	56	454	214
4	445	454	107	444
4	431	214	444	26
4	452	454	445	214
4	431	444	214	445
4	454	214	444	445
4	452	214	445	431
4	78	299	296	453
4	299	80	298	455
4	296	298	30	593
4	453	455	593	56
4	299	298	296	455
4	453	593	455	296
4	298	455	593	296
4	299	455	296	453
4	106	445	452	443
4	445	107	454	446
4	452	454	56	593
4	443	446	593	30
4	445	454	452	446
4	443	593	446	452
4	454	446	593	452
4	445	446	452	443
4	80	455	456	298
4	455	56	454	593
4	456	454	107	446
4	298	593	446	30
4	455	454	456	593
4	298	446	593	456
4	454	593	446	456
4	455	593	456	298
4	78	453	296	451
4	453	56	593	452
4	296	593	30	443
4	451	452	443	106
4	453	593	296	452
4	451	443	452	296
4	593	452	443	296
4	453	452	296	451
4	19	246	458	253
4	246	65	457	252
4	458	457	108	462
4	253	252	462	67
4	246	457	458	252
4	253	462	252	458
4	457	252	462	458
4	246	252	458	253
4	65	243	459	248
4	243	17	406	247
4	459	406	103	468
4	248	247	468	66
4	243	406	459	247
4	248	468	247	459
4	406	247	468	459
4	243	247	459	248
4	108	460	461	464
4	460	103	409	469
4	461	409	2	463
4	464	469	463	109
4	460	409	461	469
4	464	463	469	461
4	409	469	463	461
4	460	469	461	464
4	67	251	465	250
4	251	66	467	249
4	465	467	109	466
4	250	249	466	18
4	251	467	465	249
4	250	466	249	465
4	467	249	466	465
4	251	249	465	250
4	65	459	457	248
4	459	103	460	468
4	457	460	108	594
4	248	468	594	66
4	459	460	457	468
4	248	594	468	457
4	460	468	594	457
4	459	468	457	248
4	67	465	251	462
4	465	109	467	464
4	251	467	66	594
4	462	464	594	108
4	465	467	251	464
4	462	594	464	251
4	467	464	594	251
4	465	464	251	462
4	103	468	469	460
4	468	66	467	594
4	469	467	109	464
4	460	594	464	108
4	468	467	469	594
4	460	464	594	469
4	467	594	464	469
4	468	594	469	460
4	65	248	457	252
4	248	66	594	251
4	457	594	108	462
4	252	251	462	67
4	248	594	457	251
4	252	462	251	457
4	594	251	462	457
4	248	251	457	252
4	12	121	358	353
4	121	29	470	448
4	358	470	94	357
4	353	448	357	93
4	121	470	358	448
4	353	357	448	358
4	470	448	357	358
4	121	448	358	353
4	29	124	472	450
4	124	1	471	447
4	472	471	110	476
4	450	447	476	107
4	124	471	472	447
4	450	476	447	472
4	471	447	476	472
4	124	447	472	450
4	94	473	361	360
4	473	110	474	477
4	361	474	25	222
4	360	477	222	59
4	473	474	361	477
4	360	222	477	361
4	474	477	222	361
4	473	477	361	360
4	93	449	359	356
4	449	107	475	444
4	359	475	59	225
4	356	444	225	26
4	449	475	359	444
4	356	225	444	359
4	475	444	225	359
4	449	444	359	356
4	29	472	470	450
4	472	110	473	476
4	470	473	94	595
4	450	476	595	107
4	472	473	470	476
4	450	595	476	470
4	473	476	595	470
4	472	476	470	450
4	93	359	449	357
4	359	59	475	360
4	449	475	107	595
4	357	360	595	94
4	359	475	449	360
4	357	595	360	449
4	475	360	595	449
4	359	360	449	357
4	110	476	477	473
4	476	107	475	595
4	477	475	59	360
4	473	595	360	94
4	476	475	477	595
4	473	360	595	477
4	475	595	360	477
4	476	595	477	473
4	29	450	470	448
4	450	107	595	449
4	470	595	94	357
4	448	449	357	93
4	450	595	470	449
4	448	357	449	470
4	595	449	357	470
4	450	449	470	448
4	10	153	373	368
4	153	38	478	483
4	373	478	97	372
4	368	483	372	96
4	153	478	373	483
4	368	372	483	373
4	478	483	372	373
4	153	483	373	368
4	38	148	480	486
4	148	2	479	487
4	480	479	111	489
4	486	487	489	112
4	148	479	480	487
4	486	489	487	480
4	479	487	489	480
4	148	487	480	486
4	97	481	376	375
4	481	111	482	490
4	376	482	24	257
4	375	490	257	69
4	481	482	376	490
4	375	257	490	376
4	482	490	257	376
4	481	490	376	375
4	96	485	374	371
4	485	112	488	484
4	374	488	69	260
4	371	484	260	25
4	485	488	374	484
4	371	260	484	374
4	488	484	260	374
4	485	484	374	371
4	38	480	478	486
4	480	111	481	489
4	478	481	97	596
4	486	489	596	112
4	480	481	478	489
4	486	596	489	478
4	481	489	596	478
4	480	489	478	486
4	96	374	485	372
4	374	69	488	375
4	485	488	112	596
4	372	375	596	97
4	374	488	485	375
4	372	596	375	485
4	488	375	596	485
4	374	375	485	372
4	111	489	490	481
4	489	112	488	596
4	490	488	69	375
4	481	596	375	97
4	489	488	490	596
4	481	375	596	490
4	488	596	375	490
4	489	596	490	481
4	38	486	478	483
4	486	112	596	485
4	478	596	97	372
4	483	485	372	96
4	486	596	478	485
4	483	372	485	478
4	596	485	372	478
4	486	485	478	483
4	25	239	232	484
4	239	63	238	494
4	232	238	61	491
4	484	494	491	112
4	239	238	232	494
4	484	491	494	232
4	238	494	491	232
4	239	494	232	484
4	63	236	237	496
4	236	19	235	458
4	237	235	62	498
4	496	458	498	108
4	236	235	237	458
4	496	498	458	237
4	235	458	498	237
4	236	458	237	496
4	61	234	229	492
4	234	62	233	499
4	229	233	16	308
4	492	499	308	82
4	234	233	229	499
4	492	308	499	229
4	233	499	308	229
4	234	499	229	492
4	112	495	493	487
4	495	108	497	461
4	493	497	82	306
4	487	461	306	2
4	495	497	493	461
4	487	306	461	493
4	497	461	306	493
4	495	461	493	487
4	63	237	238	496
4	237	62	234	498
4	238	234	61	597
4	496	498	597	108
4	237	234	238	498
4	496	597	498	238
4	234	498	597	238
4	237	498	238	496
4	112	493	495	491
4	493	82	497	492
4	495	497	108	597
4	491	492	597	61
4	493	497	495	492
4	491	597	492	495
4	497	492	597	495
4	493	492	495	491
4	62	498	499	234
4	498	108	497	597
4	499	497	82	492
4	234	597	492	61
4	498	497	499	597
4	234	492	597	499
4	497	597	492	499
4	498	597	499	234
4	63	496	238	494
4	496	108	597	495
4	238	597	61	491
4	494	495	491	112
4	496	597	238	495
4	494	491	495	238
4	597	495	491	238
4	496	495	238	494
4	12	135	358	121
4	135	33	500	136
4	358	500	94	470
4	121	136	470	29
4	135	500	358	136
4	121	470	136	358
4	500	136	470	358
4	135	136	358	121
4	33	138	501	137
4	138	2	487	139
4	501	487	112	504
4	137	139	504	34
4	138	487	501	139
4	137	504	139	501
4	487	139	504	501
4	138	139	501	137
4	94	502	361	473
4	502	112	484	505
4	361	484	25	474
4	473	505	474	110
4	502	484	361	505
4	473	474	505	361
4	484	505	474	361
4	502	505	361	473
4	29	133	472	124
4	133	34	503	134
4	472	503	110	471
4	124	134	471	1
4	133	503	472	134
4	124	471	134	472
4	503	134	471	472
4	133	134	472	124
4	33	501	500	137
4	501	112	502	504
4	500	502	94	598
4	137	504	598	34
4	501	502	500	504
4	137	598	504	500
4	502	504	598	500
4	501	504	500	137
4	29	472	133	470
4	472	110	503	473
4	133	503	34	598
4	470	473	598	94
4	472	503	133	473
4	470	598	473	133
4	503	473	598	133
4	472	473	133	470
4	112	504	505	502
4	504	34	503	598
4	505	503	110	473
4	502	598	473	94
4	504	503	505	598
4	502	473	598	505
4	503	598	473	505
4	504	598	505	502
4	33	137	500	136
4	137	34	598	133
4	500	598	94	470
4	136	133	470	29
4	137	598	500	133
4	136	470	133	500
4	598	133	470	500
4	137	133	500	136
4	2	138	487	141
4	138	33	501	140
4	487	501	112	506
4	141	140	506	36
4	138	501	487	140
4	141	506	140	487
4	501	140	506	487
4	138	140	487	141
4	33	135	500	143
4	135	12	358	142
4	500	358	94	364
4	143	142	364	35
4	135	358	500	142
4	143	364	142	500
4	358	142	364	500
4	135	142	500	143
4	112	502	484	507
4	502	94	361	365
4	484	361	25	366
4	507	365	366	95
4	502	361	484	365
4	507	366	365	484
4	361	365	366	484
4	502	365	484	507
4	36	144	508	146
4	144	35	362	145
4	508	362	95	363
4	146	145	363	11
4	144	362	508	145
4	146	363	145	508
4	362	145	363	508
4	144	145	508	146
4	33	500	501	143
4	500	94	502	364
4	501	502	112	599
4	143	364	599	35
4	500	502	501	364
4	143	599	364	501
4	502	364	599	501
4	500	364	501	143
4	36	508	144	506
4	508	95	362	507
4	144	362	35	599
4	506	507	599	112
4	508	362	144	507
4	506	599	507	144
4	362	507	599	144
4	508	507	144	506
4	94	364	365	502
4	364	35	362	599
4	365	362	95	507
4	502	599	507	112
4	364	362	365	599
4	502	507	599	365
4	362	599	507	365
4	364	599	365	502
4	33	143	501	140
4	143	35	599	144
4	501	599	112	506
4	140	144	506	36
4	143	599	501	144
4	140	506	144	501
4	599	144	506	501
4	143	144	501	140
4	11	146	149	363
4	146	36	150	508
4	149	150	37	369
4	363	508	369	95
4	146	150	149	508
4	363	369	508	149
4	150	508	369	149
4	146	508	149	363
4	36	141	147	506
4	141	2	148	487
4	147	148	38	486
4	506	487	486	112
4	141	148	147	487
4	506	486	487	147
4	148	487	486	147
4	141	487	147	506
4	37	151	152	367
4	151	38	153	483
4	152	153	10	368
4	367	483	368	96
4	151	153	152	483
4	367	368	483	152
4	153	483	368	152
4	151	483	152	367
4	95	507	370	366
4	507	112	485	484
4	370	485	96	371
4	366	484	371	25
4	507	485	370	484
4	366	371	484	370
4	485	484	371	370
4	507	484	370	366
4	36	147	150	506
4	147	38	151	486
4	150	151	37	600
4	506	486	600	112
4	147	151	150	486
4	506	600	486	150
4	151	486	600	150
4	147	486	150	506
4	95	370	507	369
4	370	96	485	367
4	507	485	112	600
4	369	367	600	37
4	370	485	507	367
4	369	600	367	507
4	485	367	600	507
4	370	367	507	369
4	38	486	483	151
4	486	112	485	600
4	483	485	96	367
4	151	600	367	37
4	486	485	483	600
4	151	367	600	483
4	485	600	367	483
4	486	600	483	151
4	36	506	150	508
4	506	112	600	507
4	150	600	37	369
4	508	507	369	95
4	506	600	150	507
4	508	369	507	150
4	600	507	369	150
4	506	507	150	508
4	15	305	219	226
4	305	81	509	310
4	219	509	58	227
4	226	310	227	60
4	305	509	219	310
4	226	227	310	219
4	509	310	227	219
4	305	310	219	226
4	81	302	510	307
4	302	2	487	306
4	510	487	112	493
4	307	306	493	82
4	302	487	510	306
4	307	493	306	510
4	487	306	493	510
4	302	306	510	307
4	58	511	221	231
4	511	112	484	491
4	221	484	25	232
4	231	491	232	61
4	511	484	221	491
4	231	232	491	221
4	484	491	232	221
4	511	491	221	231
4	60	309	230	228
4	309	82	492	308
4	230	492	61	229
4	228	308	229	16
4	309	492	230	308
4	228	229	308	230
4	492	308	229	230
4	309	308	230	228
4	81	510	509	307
4	510	112	511	493
4	509	511	58	601
4	307	493	601	82
4	510	511	509	493
4	307	601	493	509
4	511	493	601	509
4	510	493	509	307
4	60	230	309	227
4	230	61	492	231
4	309	492	82	601
4	227	231	601	58
4	230	492	309	231
4	227	601	231	309
4	492	231	601	309
4	230	231	309	227
4	112	493	491	511
4	493	82	492	601
4	491	492	61	231
4	511	601	231	58
4	493	492	491	601
4	511	231	601	491
4	492	601	231	491
4	493	601	491	511
4	81	307	509	310
4	307	82	601	309
4	509	601	58	227
4	310	309	227	60
4	307	601	509	309
4	310	227	309	509
4	601	309	227	509
4	307	309	509	310
4	15	219	300	212
4	219	58	512	220
4	300	512	80	455
4	212	220	455	56
4	219	512	300	220
4	212	455	220	300
4	512	220	455	300
4	219	220	300	212
4	58	221	513	223
4	221	25	474	222
4	513	474	110	477
4	223	222	477	59
4	221	474	513	222
4	223	477	222	513
4	474	222	477	513
4	221	222	513	223
4	80	514	297	456
4	514	110	471	476
4	297	471	1	447
4	456	476	447	107
4	514	471	297	476
4	456	447	476	297
4	471	476	447	297
4	514	476	297	456
4	56	224	454	214
4	224	59	475	225
4	454	475	107	444
4	214	225	444	26
4	224	475	454	225
4	214	444	225	454
4	475	225	444	454
4	224	225	454	214
4	58	513	512	223
4	513	110	514	477
4	512	514	80	602
4	223	477	602	59
4	513	514	512	477
4	223	602	477	512
4	514	477	602	512
4	513	477	512	223
4	56	454	224	455
4	454	107	475	456
4	224	475	59	602
4	455	456	602	80
4	454	475	224	456
4	455	602	456	224
4	475	456	602	224
4	454	456	224	455
4	110	477	476	514
4	477	59	475	602
4	476	475	107	456
4	514	602	456	80
4	477	475	476	602
4	514	456	602	476
4	475	602	456	476
4	477	602	476	514
4	58	223	512	220
4	223	59	602	224
4	512	602	80	455
4	220	224	455	56
4	223	602	512	224
4	220	455	224	512
4	602	224	455	512
4	223	224	512	220
4	15	305	300	219
4	305	81	304	509
4	300	304	80	512
4	219	509	512	58
4	305	304	300	509
4	219	512	509	300
4	304	509	512	300
4	305	509	300	219
4	81	302	303	510
4	302	2	139	487
4	303	139	34	504
4	510	487	504	112
4	302	139	303	487
4	510	504	487	303
4	139	487	504	303
4	302	487	303	510
4	80	301	297	514
4	301	34	134	503
4	297	134	1	471
4	514	503	471	110
4	301	134	297	503
4	514	471	503	297
4	134	503	471	297
4	301	503	297	514
4	58	511	513	221
4	511	112	505	484
4	513	505	110	474
4	221	484	474	25
4	511	505	513	484
4	221	474	484	513
4	505	484	474	513
4	511	484	513	221
4	81	303	304	510
4	303	34	301	504
4	304	301	80	603
4	510	504	603	112
4	303	301	304	504
4	510	603	504	304
4	301	504	603	304
4	303	504	304	510
4	58	513	511	512
4	513	110	505	514
4	511	505	112	603
4	512	514	603	80
4	513	505	511	514
4	512	603	514	511
4	505	514	603	511
4	513	514	511	512
4	34	504	503	301
4	504	112	505	603
4	503	505	110	514
4	301	603	514	80
4	504	505	503	603
4	301	514	603	503
4	505	603	514	503
4	504	603	503	301
4	81	510	304	509
4	510	112	603	511
4	304	603	80	512
4	509	511	512	58
4	510	603	304	511
4	509	512	511	304
4	603	511	512	304
4	510	511	304	509
4	21	425	337	282
4	425	105	515	428
4	337	515	89	518
4	282	428	518	76
4	425	515	337	428
4	282	518	428	337
4	515	428	518	337
4	425	428	337	282
4	105	422	516	426
4	422	8	195	393
4	516	195	50	524
4	426	393	524	101
4	422	195	516	393
4	426	524	393	516
4	195	393	524	516
4	422	393	516	426
4	89	517	335	520
4	517	50	190	525
4	335	190	6	519
4	520	525	519	113
4	517	190	335	525
4	520	519	525	335
4	190	525	519	335
4	517	525	335	520
4	76	427	521	284
4	427	101	523	396
4	521	523	113	522
4	284	396	522	22
4	427	523	521	396
4	284	522	396	521
4	523	396	522	521
4	427	396	521	284
4	105	516	515	426
4	516	50	517	524
4	515	517	89	604
4	426	524	604	101
4	516	517	515	524
4	426	604	524	515
4	517	524	604	515
4	516	524	515	426
4	76	521	427	518
4	521	113	523	520
4	427	523	101	604
4	518	520	604	89
4	521	523	427	520
4	518	604	520	427
4	523	520	604	427
4	521	520	427	518
4	50	524	525	517
4	524	101	523	604
4	525	523	113	520
4	517	604	520	89
4	524	523	525	604
4	517	520	604	525
4	523	604	520	525
4	524	604	525	517
4	105	426	515	428
4	426	101	604	427
4	515	604	89	518
4	428	427	518	76
4	426	604	515	427
4	428	518	427	515
4	604	427	518	515
4	426	427	515	428
4	6	183	527	190
4	183	48	526	189
4	527	526	114	531
4	190	189	531	50
4	183	526	527	189
4	190	531	189	527
4	526	189	531	527
4	183	189	527	190
4	48	188	528	192
4	188	9	383	191
4	528	383	99	389
4	192	191	389	49
4	188	383	528	191
4	192	389	191	528
4	383	191	389	528
4	188	191	528	192
4	114	529	530	532
4	529	99	386	390
4	530	386	23	391
4	532	390	391	100
4	529	386	530	390
4	532	391	390	530
4	386	390	391	530
4	529	390	530	532
4	50	193	533	195
4	193	49	387	194
4	533	387	100	388
4	195	194	388	8
4	193	387	533	194
4	195	388	194	533
4	387	194	388	533
4	193	194	533	195
4	48	528	526	192
4	528	99	529	389
4	526	529	114	605
4	192	389	605	49
4	528	529	526	389
4	192	605	389	526
4	529	389	605	526
4	528	389	526	192
4	50	533	193	531
4	533	100	387	532
4	193	387	49	605
4	531	532	605	114
4	533	387	193	532
4	531	605	532	193
4	387	532	605	193
4	533	532	193	531
4	99	389	390	529
4	389	49	387	605
4	390	387	100	532
4	529	605	532	114
4	389	387	390	605
4	529	532	605	390
4	387	605	532	390
4	389	605	390	529
4	48	192	526	189
4	192	49	605	193
4	526	605	114	531
4	189	193	531	50
4	192	605	526	193
4	189	531	193	526
4	605	193	531	526
4	192	193	526	189
4	10	156	378	373
4	156	39	534	539
4	378	534	98	377
4	373	539	377	97
4	156	534	378	539
4	373	377	539	378
4	534	539	377	378
4	156	539	378	373
4	39	159	536	542
4	159	5	535	543
4	536	535	115	545
4	542	543	545	116
4	159	535	536	543
4	542	545	543	536
4	535	543	545	536
4	159	543	536	542
4	98	537	381	380
4	537	115	538	546
4	381	538	23	264
4	380	546	264	71
4	537	538	381	546
4	380	264	546	381
4	538	546	264	381
4	537	546	381	380
4	97	541	379	376
4	541	116	544	540
4	379	544	71	267
4	376	540	267	24
4	541	544	379	540
4	376	267	540	379
4	544	540	267	379
4	541	540	379	376
4	39	536	534	542
4	536	115	537	545
4	534	537	98	606
4	542	545	606	116
4	536	537	534	545
4	542	606	545	534
4	537	545	606	534
4	536	545	534	542
4	97	379	541	377
4	379	71	544	380
4	541	544	116	606
4	377	380	606	98
4	379	544	541	380
4	377	606	380	541
4	544	380	606	541
4	379	380	541	377
4	115	545	546	537
4	545	116	544	606
4	546	544	71	380
4	537	606	380	98
4	545	544	546	606
4	537	380	606	546
4	544	606	380	546
4	545	606	546	537
4	39	542	534	539
4	542	116	606	541
4	534	606	98	377
4	539	541	377	97
4	542	606	534	541
4	539	377	541	534
4	606	541	377	534
4	542	541	534	539
4	5	160	324	543
4	160	40	547	553
4	324	547	87	550
4	543	553	550	116
4	160	547	324	553
4	543	550	553	324
4	547	553	550	324
4	160	553	324	543
4	40	155	548	555
4	155	2	461	479
4	548	461	108	557
4	555	479	557	111
4	155	461	548	479
4	555	557	479	548
4	461	479	557	548
4	155	479	548	555
4	87	549	329	551
4	549	108	458	558
4	329	458	19	254
4	551	558	254	68
4	549	458	329	558
4	551	254	558	329
4	458	558	254	329
4	549	558	329	551
4	116	554	552	540
4	554	111	556	482
4	552	556	68	256
4	540	482	256	24
4	554	556	552	482
4	540	256	482	552
4	556	482	256	552
4	554	482	552	540
4	40	548	547	555
4	548	108	549	557
4	547	549	87	607
4	555	557	607	111
4	548	549	547	557
4	555	607	557	547
4	549	557	607	547
4	548	557	547	555
4	116	552	554	550
4	552	68	556	551
4	554	556	111	607
4	550	551	607	87
4	552	556	554	551
4	550	607	551	554
4	556	551	607	554
4	552	551	554	550
4	108	557	558	549
4	557	111	556	607
4	558	556	68	551
4	549	607	551	87
4	557	556	558	607
4	549	551	607	558
4	556	607	551	558
4	557	607	558	549
4	40	555	547	553
4	555	111	607	554
4	547	607	87	550
4	553	554	550	116
4	555	607	547	554
4	553	550	554	547
4	607	554	550	547
4	555	554	547	553
4	23	391	288	530
4	391	100	394	532
4	288	394	77	559
4	530	532	559	114
4	391	394	288	532
4	530	559	532	288
4	394	532	559	288
4	391	532	288	530
4	100	388	392	533
4	388	8	393	195
4	392	393	101	524
4	533	195	524	50
4	388	393	392	195
4	533	524	195	392
4	393	195	524	392
4	388	195	392	533
4	77	395	285	560
4	395	101	396	523
4	285	396	22	522
4	560	523	522	113
4	395	396	285	523
4	560	522	523	285
4	396	523	522	285
4	395	523	285	560
4	114	531	561	527
4	531	50	525	190
4	561	525	113	519
4	527	190	519	6
4	531	525	561	190
4	527	519	190	561
4	525	190	519	561
4	531	190	561	527
4	100	392	394	533
4	392	101	395	524
4	394	395	77	608
4	533	524	608	50
4	392	395	394	524
4	533	608	524	394
4	395	524	608	394
4	392	524	394	533
4	114	561	531	559
4	561	113	525	560
4	531	525	50	608
4	559	560	608	77
4	561	525	531	560
4	559	608	560	531
4	525	560	608	531
4	561	560	531	559
4	101	524	523	395
4	524	50	525	608
4	523	525	113	560
4	395	608	560	77
4	524	525	523	608
4	395	560	608	523
4	525	608	560	523
4	524	608	523	395
4	100	533	394	532
4	533	50	608	531
4	394	608	77	559
4	532	531	559	114
4	533	608	394	531
4	532	559	531	394
4	608	531	559	394
4	533	531	394	532
4	23	538	263	264
4	538	115	562	546
4	263	562	70	265
4	264	546	265	71
4	538	562	263	546
4	264	265	546	263
4	562	546	265	263
4	538	546	263	264
4	115	535	563	545
4	535	5	324	543
4	563	324	87	550
4	545	543	550	116
4	535	324	563	543
4	545	550	543	563
4	324	543	550	563
4	535	543	563	545
4	70	564	261	262
4	564	87	329	551
4	261	329	19	254
4	262	551	254	68
4	564	329	261	551
4	262	254	551	261
4	329	551	254	261
4	564	551	261	262
4	71	544	266	267
4	544	116	552	540
4	266	552	68	256
4	267	540	256	24
4	544	552	266	540
4	267	256	540	266
4	552	540	256	266
4	544	540	266	267
4	115	563	562	545
4	563	87	564	550
4	562	564	70	609
4	545	550	609	116
4	563	564	562	550
4	545	609	550	562
4	564	550	609	562
4	563	550	562	545
4	71	266	544	265
4	266	68	552	262
4	544	552	116	609
4	265	262	609	70
4	266	552	544	262
4	265	609	262	544
4	552	262	609	544
4	266	262	544	265
4	87	550	551	564
4	550	116	552	609
4	551	552	68	262
4	564	609	262	70
4	550	552	551	609
4	564	262	609	551
4	552	609	262	551
4	550	609	551	564
4	115	545	562	546
4	545	116	609	544
4	562	609	70	265
4	546	544	265	71
4	545	609	562	544
4	546	265	544	562
4	609	544	265	562
4	545	544	562	546
4	19	328	261	268
4	328	86	565	334
4	261	565	70	269
4	268	334	269	72
4	328	565	261	334
4	268	269	334	261
4	565	334	269	261
4	328	334	261	268
4	86	325	566	331
4	325	6	527	330
4	566	527	114	569
4	331	330	569	88
4	325	527	566	330
4	331	569	330	566
4	527	330	569	566
4	325	330	566	331
4	70	567	263	273
4	567	114	530	570
4	263	530	23	274
4	273	570	274	73
4	567	530	263	570
4	273	274	570	263
4	530	570	274	263
4	567	570	263	273
4	72	333	272	270
4	333	88	568	332
4	272	568	73	271
4	270	332	271	20
4	333	568	272	332
4	270	271	332	272
4	568	332	271	272
4	333	332	272	270
4	86	566	565	331
4	566	114	567	569
4	565	567	70	610
4	331	569	610	88
4	566	567	565	569
4	331	610	569	565
4	567	569	610	565
4	566	569	565	331
4	72	272	333	269
4	272	73	568	273
4	333	568	88	610
4	269	273	610	70
4	272	568	333	273
4	269	610	273	333
4	568	273	610	333
4	272	273	333	269
4	114	569	570	567
4	569	88	568	610
4	570	568	73	273
4	567	610	273	70
4	569	568	570	610
4	567	273	610	570
4	568	610	273	570
4	569	610	570	567
4	86	331	565	334
4	331	88	610	333
4	565	610	70	269
4	334	333	269	72
4	331	610	565	333
4	334	269	333	565
4	610	333	269	565
4	331	333	565	334
4	10	177	378	156
4	177	45	571	178
4	378	571	98	534
4	156	178	534	39
4	177	571	378	178
4	156	534	178	378
4	571	178	534	378
4	177	178	378	156
4	45	180	572	179
4	180	6	527	181
4	572	527	114	575
4	179	181	575	46
4	180	527	572	181
4	179	575	181	572
4	527	181	575	572
4	180	181	572	179
4	98	573	381	537
4	573	114	530	576
4	381	530	23	538
4	537	576	538	115
4	573	530	381	576
4	537	538	576	381
4	530	576	538	381
4	573	576	381	537
4	39	175	536	159
4	175	46	574	176
4	536	574	115	535
4	159	176	535	5
4	175	574	536	176
4	159	535	176	536
4	574	176	535	536
4	175	176	536	159
4	45	572	571	179
4	572	114	573	575
4	571	573	98	611
4	179	575	611	46
4	572	573	571	575
4	179	611	575	571
4	573	575	611	571
4	572	575	571	179
4	39	536	175	534
4	536	115	574	537
4	175	574	46	611
4	534	537	611	98
4	536	574	175	537
4	534	611	537	175
4	574	537	611	175
4	536	537	175	534
4	114	575	576	573
4	575	46	574	611
4	576	574	115	537
4	573	611	537	98
4	575	574	576	611
4	573	537	611	576
4	574	611	537	576
4	575	611	576	573
4	45	179	571	178
4	179	46	611	175
4	571	611	98	534
4	178	175	534	39
4	179	611	571	175
4	178	534	175	571
4	611	175	534	571
4	179	175	571	178
4	17	316	406	247
4	316	83	577	322
4	406	577	103	468
4	247	322	468	66
4	316	577	406	322
4	247	468	322	406
4	577	322	468	406
4	316	322	406	247
4	83	313	578	319
4	313	4	164	318
4	578	164	41	581
4	319	318	581	85
4	313	164	578	318
4	319	581	318	578
4	164	318	581	578
4	313	318	578	319
4	103	579	409	469
4	579	41	161	582
4	409	161	2	463
4	469	582	463	109
4	579	161	409	582
4	469	463	582	409
4	161	582	463	409
4	579	582	409	469
4	66	321	467	249
4	321	85	580	320
4	467	580	109	466
4	249	320	466	18
4	321	580	467	320
4	249	466	320	467
4	580	320	466	467
4	321	320	467	249
4	83	578	577	319
4	578	41	579	581
4	577	579	103	612
4	319	581	612	85
4	578	579	577	581
4	319	612	581	577
4	579	581	612	577
4	578	581	577	319
4	66	467	321	468
4	467	109	580	469
4	321	580	85	612
4	468	469	612	103
4	467	580	321	469
4	468	612	469	321
4	580	469	612	321
4	467	469	321	468
4	41	581	582	579
4	581	85	580	612
4	582	580	109	469
4	579	612	469	103
4	581	580	582	612
4	579	469	612	582
4	580	612	469	582
4	581	612	582	579
4	83	319	577	322
4	319	85	612	321
4	577	612	103	468
4	322	321	468	66
4	319	612	577	321
4	322	468	321	577
4	612	321	468	577
4	319	321	577	322
4	21	425	344	337
4	425	105	424	515
4	344	424	90	343
4	337	515	343	89
4	425	424	344	515
4	337	343	515	344
4	424	515	343	344
4	425	515	344	337
4	105	422	423	516
4	422	8	198	195
4	423	198	51	199
4	516	195	199	50
4	422	198	423	195
4	516	199	195	423
4	198	195	199	423
4	422	195	423	516
4	90	421	341	342
4	421	51	201	200
4	341	201	7	202
4	342	200	202	52
4	421	201	341	200
4	342	202	200	341
4	201	200	202	341
4	421	200	341	342
4	89	517	340	335
4	517	50	196	190
4	340	196	52	197
4	335	190	197	6
4	517	196	340	190
4	335	197	190	340
4	196	190	197	340
4	517	190	340	335
4	105	423	424	516
4	423	51	421	199
4	424	421	90	613
4	516	199	613	50
4	423	421	424	199
4	516	613	199	424
4	421	199	613	424
4	423	199	424	516
4	89	340	517	343
4	340	52	196	342
4	517	196	50	613
4	343	342	613	90
4	340	196	517	342
4	343	613	342	517
4	196	342	613	517
4	340	342	517	343
4	51	199	200	421
4	199	50	196	613
4	200	196	52	342
4	421	613	342	90
4	199	196	200	613
4	421	342	613	200
4	196	613	342	200
4	199	613	200	421
4	105	516	424	515
4	516	50	613	517
4	424	613	90	343
4	515	517	343	89
4	516	613	424	517
4	515	343	517	424
4	613	517	343	424
4	516	517	424	515
4	19	246	235	458
4	246	65	245	457
4	235	245	62	498
4	458	457	498	108
4	246	245	235	457
4	458	498	457	235
4	245	457	498	235
4	246	457	235	458
4	65	243	244	459
4	243	17	242	406
4	244	242	64	411
4	459	406	411	103
4	243	242	244	406
4	459	411	406	244
4	242	406	411	244
4	243	406	244	459
4	62	241	233	499
4	241	64	240	412
4	233	240	16	308
4	499	412	308	82
4	241	240	233	412
4	499	308	412	233
4	240	412	308	233
4	241	412	233	499
4	108	460	497	461
4	460	103	410	409
4	497	410	82	306
4	461	409	306	2
4	460	410	497	409
4	461	306	409	497
4	410	409	306	497
4	460	409	497	461
4	65	244	245	459
4	244	64	241	411
4	245	241	62	614
4	459	411	614	103
4	244	241	245	411
4	459	614	411	245
4	241	411	614	245
4	244	411	245	459
4	108	497	460	498
4	497	82	410	499
4	460	410	103	614
4	498	499	614	62
4	497	410	460	499
4	498	614	499	460
4	410	499	614	460
4	497	499	460	498
4	64	411	412	241
4	411	103	410	614
4	412	410	82	499
4	241	614	499	62
4	411	410	412	614
4	241	499	614	412
4	410	614	499	412
4	411	614	412	241
4	65	459	245	457
4	459	103	614	460
4	245	614	62	498
4	457	460	498	108
4	459	614	245	460
4	457	498	460	245
4	614	460	498	245
4	459	460	245	457
4	17	316	317	406
4	316	83	315	577
4	317	315	84	407
4	406	577	407	103
4	316	315	317	577
4	406	407	577	317
4	315	577	407	317
4	316	577	317	406
4	83	313	314	578
4	313	4	165	164
4	314	165	42	166
4	578	164	166	41
4	313	165	314	164
4	578	166	164	314
4	165	164	166	314
4	313	164	314	578
4	84	311	312	405
4	311	42	168	167
4	312	168	3	169
4	405	167	169	43
4	311	168	312	167
4	405	169	167	312
4	168	167	169	312
4	311	167	312	405
4	103	579	408	409
4	579	41	162	161
4	408	162	43	163
4	409	161	163	2
4	579	162	408	161
4	409	163	161	408
4	162	161	163	408
4	579	161	408	409
4	83	314	315	578
4	314	42	311	166
4	315	311	84	615
4	578	166	615	41
4	314	311	315	166
4	578	615	166	315
4	311	166	615	315
4	314	166	315	578
4	103	408	579	407
4	408	43	162	405
4	579	162	41	615
4	407	405	615	84
4	408	162	579	405
4	407	615	405	579
4	162	405	615	579
4	408	405	579	407
4	42	166	167	311
4	166	41	162	615
4	167	162	43	405
4	311	615	405	84
4	166	162	167	615
4	311	405	615	167
4	162	615	405	167
4	166	615	167	311
4	83	578	315	577
4	578	41	615	579
4	315	615	84	407
4	577	579	407	103
4	578	615	315	579
4	577	407	579	315
4	615	579	407	315
4	578	579	315	577
4	25	239	484	260
4	239	63	494	259
4	484	494	112	488
4	260	259	488	69
4	239	494	484	259
4	260	488	259	484
4	494	259	488	484
4	239	259	484	260
4	63	236	496	255
4	236	19	458	254
4	496	458	108	558
4	255	254	558	68
4	236	458	496	254
4	255	558	254	496
4	458	254	558	496
4	236	254	496	255
4	112	495	487	489
4	495	108	461	557
4	487	461	2	479
4	489	557	479	111
4	495	461	487	557
4	489	479	557	487
4	461	557	479	487
4	495	557	487	489
4	69	258	490	257
4	258	68	556	256
4	490	556	111	482
4	257	256	482	24
4	258	556	490	256
4	257	482	256	490
4	556	256	482	490
4	258	256	490	257
4	63	496	494	255
4	496	108	495	558
4	494	495	112	616
4	255	558	616	68
4	496	495	494	558
4	255	616	558	494
4	495	558	616	494
4	496	558	494	255
4	69	490	258	488
4	490	111	556	489
4	258	556	68	616
4	488	489	616	112
4	490	556	258	489
4	488	616	489	258
4	556	489	616	258
4	490	489	258	488
4	108	558	557	495
4	558	68	556	616
4	557	556	111	489
4	495	616	489	112
4	558	556	557	616
4	495	489	616	557
4	556	616	489	557
4	558	616	557	495
4	63	255	494	259
4	255	68	616	258
4	494	616	112	488
4	259	258	488	69
4	255	616	494	258
4	259	488	258	494
4	616	258	488	494
4	255	258	494	259
4	6	180	527	183
4	180	45	572	182
4	527	572	114	526
4	183	182	526	48
4	180	572	527	182
4	183	526	182	527
4	572	182	526	527
4	180	182	527	183
4	45	177	571	185
4	177	10	378	184
4	571	378	98	384
4	185	184	384	47
4	177	378	571	184
4	185	384	184	571
4	378	184	384	571
4	177	184	571	185
4	114	573	530	529
4	573	98	381	385
4	530	381	23	386
4	529	385	386	99
4	573	381	530	385
4	529	386	385	530
4	381	385	386	530
4	573	385	530	529
4	48	186	528	188
4	186	47	382	187
4	528	382	99	383
4	188	187	383	9
4	186	382	528	187
4	188	383	187	528
4	382	187	383	528
4	186	187	528	188
4	45	571	572	185
4	571	98	573	384
4	572	573	114	617
4	185	384	617	47
4	571	573	572	384
4	185	617	384	572
4	573	384	617	572
4	571	384	572	185
4	48	528	186	526
4	528	99	382	529
4	186	382	47	617
4	526	529	617	114
4	528	382	186	529
4	526	617	529	186
4	382	529	617	186
4	528	529	186	526
4	98	384	385	573
4	384	47	382	617
4	385	382	99	529
4	573	617	529	114
4	384	382	385	617
4	573	529	617	385
4	382	617	529	385
4	384	617	385	573
4	45	185	572	182
4	185	47	617	186
4	572	617	114	526
4	182	186	526	48
4	185	617	572	186
4	182	526	186	572
4	617	186	526	572
4	185	186	572	182
4	27	210	401	218
4	210	54	440	217
4	401	440	102	438
4	218	217	438	57
4	210	440	401	217
4	218	438	217	401
4	440	217	438	401
4	210	217	401	218
4	54	207	442	213
4	207	15	292	212
4	442	292	78	453
4	213	212	453	56
4	207	292	442	212
4	213	453	212	442
4	292	212	453	442
4	207	212	442	213
4	102	441	398	437
4	441	78	289	451
4	398	289	0	429
4	437	451	429	106
4	441	289	398	451
4	437	429	451	398
4	289	451	429	398
4	441	451	398	437
4	57	216	439	215
4	216	56	452	214
4	439	452	106	431
4	215	214	431	26
4	216	452	439	214
4	215	431	214	439
4	452	214	431	439
4	216	214	439	215
4	54	442	440	213
4	442	78	441	453
4	440	441	102	618
4	213	453	618	56
4	442	441	440	453
4	213	618	453	440
4	441	453	618	440
4	442	453	440	213
4	57	439	216	438
4	439	106	452	437
4	216	452	56	618
4	438	437	618	102
4	439	452	216	437
4	438	618	437	216
4	452	437	618	216
4	439	437	216	438
4	78	453	451	441
4	453	56	452	618
4	451	452	106	437
4	441	618	437	102
4	453	452	451	618
4	441	437	618	451
4	452	618	437	451
4	453	618	451	441
4	54	213	440	217
4	213	56	618	216
4	440	618	102	438
4	217	216	438	57
4	213	618	440	216
4	217	438	216	440
4	618	216	438	440
4	213	216	440	217
4	23	281	274	530
4	281	75	280	583
4	274	280	73	570
4	530	583	570	114
4	281	280	274	583
4	530	570	583	274
4	280	583	570	274
4	281	583	274	530
4	75	278	279	585
4	278	21	277	337
4	279	277	74	338
4	585	337	338	89
4	278	277	279	337
4	585	338	337	279
4	277	337	338	279
4	278	337	279	585
4	73	276	271	568
4	276	74	275	339
4	271	275	20	332
4	568	339	332	88
4	276	275	271	339
4	568	332	339	271
4	275	339	332	271
4	276	339	271	568
4	114	584	569	527
4	584	89	336	335
4	569	336	88	330
4	527	335	330	6
4	584	336	569	335
4	527	330	335	569
4	336	335	330	569
4	584	335	569	527
4	75	279	280	585
4	279	74	276	338
4	280	276	73	619
4	585	338	619	89
4	279	276	280	338
4	585	619	338	280
4	276	338	619	280
4	279	338	280	585
4	114	569	584	570
4	569	88	336	568
4	584	336	89	619
4	570	568	619	73
4	569	336	584	568
4	570	619	568	584
4	336	568	619	584
4	569	568	584	570
4	74	338	339	276
4	338	89	336	619
4	339	336	88	568
4	276	619	568	73
4	338	336	339	619
4	276	568	619	339
4	336	619	568	339
4	338	619	339	276
4	75	585	280	583
4	585	89	619	584
4	280	619	73	570
4	583	584	570	114
4	585	619	280	584
4	583	570	584	280
4	619	584	570	280
4	585	584	280	583
4	5	160	543	159
4	160	40	553	158
4	543	553	116	542
4	159	158	542	39
4	160	553	543	158
4	159	542	158	543
4	553	158	542	543
4	160	158	543	159
4	40	155	555	154
4	155	2	479	148
4	555	479	111	480
4	154	148	480	38
4	155	479	555	148
4	154	480	148	555
4	479	148	480	555
4	155	148	555	154
4	116	554	540	541
4	554	111	482	481
4	540	482	24	376
4	541	481	376	97
4	554	482	540	481
4	541	376	481	540
4	482	481	376	540
4	554	481	540	541
4	39	157	539	156
4	157	38	478	153
4	539	478	97	373
4	156	153	373	10
4	157	478	539	153
4	156	373	153	539
4	478	153	373	539
4	157	153	539	156
4	40	555	553	154
4	555	111	554	480
4	553	554	116	620
4	154	480	620	38
4	555	554	553	480
4	154	620	480	553
4	554	480	620	553
4	555	480	553	154
4	39	539	157	542
4	539	97	478	541
4	157	478	38	620
4	542	541	620	116
4	539	478	157	541
4	542	620	541	157
4	478	541	620	157
4	539	541	157	542
4	111	480	481	554
4	480	38	478	620
4	481	478	97	541
4	554	620	541	116
4	480	478	481	620
4	554	541	620	481
4	478	620	541	481
4	480	620	481	554
4	40	154	553	158
4	154	38	620	157
4	553	620	116	542
4	158	157	542	39
4	154	620	553	157
4	158	542	157	553
4	620	157	542	553
4	154	157	553	158
4	4	164	414	174
4	164	41	586	173
4	414	586	104	413
4	174	173	413	44
4	164	586	414	173
4	174	413	173	414
4	586	173	413	414
4	164	173	414	174
4	41	161	587	170
4	161	2	461	155
4	587	461	108	548
4	170	155	548	40
4	161	461	587	155
4	170	548	155	587
4	461	155	548	587
4	161	155	587	170
4	104	588	417	416
4	588	108	458	549
4	417	458	19	329
4	416	549	329	87
4	588	458	417	549
4	416	329	549	417
4	458	549	329	417
4	588	549	417	416
4	44	172	415	171
4	172	40	547	160
4	415	547	87	324
4	171	160	324	5
4	172	547	415	160
4	171	324	160	415
4	547	160	324	415
4	172	160	415	171
4	41	587	586	170
4	587	108	588	548
4	586	588	104	621
4	170	548	621	40
4	587	588	586	548
4	170	621	548	586
4	588	548	621	586
4	587	548	586	170
4	44	415	172	413
4	415	87	547	416
4	172	547	40	621
4	413	416	621	104
4	415	547	172	416
4	413	621	416	172
4	547	416	621	172
4	415	416	172	413
4	108	548	549	588
4	548	40	547	621
4	549	547	87	416
4	588	621	416	104
4	548	547	549	621
4	588	416	621	549
4	547	621	416	549
4	548	621	549	588
4	41	170	586	173
4	170	40	621	172
4	586	621	104	413
4	173	172	413	44
4	170	621	586	172
4	173	413	172	586
4	621	172	413	586
4	170	172	586	173
4	18	466	250	320
4	466	109	465	580
4	250	465	67	420
4	320	580	420	85
4	466	465	250	580
4	320	420	580	250
4	465	580	420	250
4	466	580	250	320
4	109	463	464	582
4	463	2	461	161
4	464	461	108	587
4	582	161	587	41
4	463	461	464	161
4	582	587	161	464
4	461	161	587	464
4	463	161	464	582
4	67	462	253	419
4	462	108	458	588
4	253	458	19	417
4	419	588	417	104
4	462	458	253	588
4	419	417	588	253
4	458	588	417	253
4	462	588	253	419
4	85	581	418	318
4	581	41	586	164
4	418	586	104	414
4	318	164	414	4
4	581	586	418	164
4	318	414	164	418
4	586	164	414	418
4	581	164	418	318
4	109	464	465	582
4	464	108	462	587
4	465	462	67	622
4	582	587	622	41
4	464	462	465	587
4	582	622	587	465
4	462	587	622	465
4	464	587	465	582
4	85	418	581	420
4	418	104	586	419
4	581	586	41	622
4	420	419	622	67
4	418	586	581	419
4	420	622	419	581
4	586	419	622	581
4	418	419	581	420
4	108	587	588	462
4	587	41	586	622
4	588	586	104	419
4	462	622	419	67
4	587	586	588	622
4	462	419	622	588
4	586	622	419	588
4	587	622	588	462
4	109	582	465	580
4	582	41	622	581
4	465	622	67	420
4	580	581	420	85
4	582	622	465	581
4	580	420	581	465
4	622	581	420	465
4	582	581	465	580
4	19	328	329	261
4	328	86	327	565
4	329	327	87	564
4	261	565	564	70
4	328	327	329	565
4	261	564	565	329
4	327	565	564	329
4	328	565	329	261
4	86	325	326	566
4	325	6	181	527
4	326	181	46	575
4	566	527	575	114
4	325	181	326	527
4	566	575	527	326
4	181	527	575	326
4	325	527	326	566
4	87	323	324	563
4	323	46	176	574
4	324	176	5	535
4	563	574	535	115
4	323	176	324	574
4	563	535	574	324
4	176	574	535	324
4	323	574	324	563
4	70	567	562	263
4	567	114	576	530
4	562	576	115	538
4	263	530	538	23
4	567	576	562	530
4	263	538	530	562
4	576	530	538	562
4	567	530	562	263
4	86	326	327	566
4	326	46	323	575
4	327	323	87	623
4	566	575	623	114
4	326	323	327	575
4	566	623	575	327
4	323	575	623	327
4	326	575	327	566
4	70	562	567	564
4	562	115	576	563
4	567	576	114	623
4	564	563	623	87
4	562	576	567	563
4	564	623	563	567
4	576	563	623	567
4	562	563	567	564
4	46	575	574	323
4	575	114	576	623
4	574	576	115	563
4	323	623	563	87
4	575	576	574	623
4	323	563	623	574
4	576	623	563	574
4	575	623	574	323
4	86	566	327	565
4	566	114	623	567
4	327	623	87	564
4	565	567	564	70
4	566	623	327	567
4	565	564	567	327
4	623	567	564	327
4	566	567	327	565
4	23	281	530	288
4	281	75	583	287
4	530	583	114	559
4	288	287	559	77
4	281	583	530	287
4	288	559	287	530
4	583	287	559	530
4	281	287	530	288
4	75	278	585	283
4	278	21	337	282
4	585	337	89	518
4	283	282	518	76
4	278	337	585	282
4	283	518	282	585
4	337	282	518	585
4	278	282	585	283
4	114	584	527	561
4	584	89	335	520
4	527	335	6	519
4	561	520	519	113
4	584	335	527	520
4	561	519	520	527
4	335	520	519	527
4	584	520	527	561
4	77	286	560	285
4	286	76	521	284
4	560	521	113	522
4	285	284	522	22
4	286	521	560	284
4	285	522	284	560
4	521	284	522	560
4	286	284	560	285
4	75	585	583	283
4	585	89	584	518
4	583	584	114	624
4	283	518	624	76
4	585	584	583	518
4	283	624	518	583
4	584	518	624	583
4	585	518	583	283
4	77	560	286	559
4	560	113	521	561
4	286	521	76	624
4	559	561	624	114
4	560	521	286	561
4	559	624	561	286
4	521	561	624	286
4	560	561	286	559
4	89	518	520	584
4	518	76	521	624
4	520	521	113	561
4	584	624	561	114
4	518	521	520	624
4	584	561	624	520
4	521	624	561	520
4	518	624	520	584
4	75	283	583	287
4	283	76	624	286
4	583	624	114	559
4	287	286	559	77
4	283	624	583	286
4	287	559	286	583
4	624	286	559	583
4	283	286	583	287
CELL_TYPES		2304
10
10
10
10
10
10
10
10
10
10
10
10
10
10
10
10
10
10
10
10
10
10
10
10
10
10
10
10
10
10
10
10
10
10
10
10
10
10
10
10
10
10
10
10
10
10
10
10
10
10
10
10
10
10
10
10
10
10
10
10
10
10
10
10
10
10
10
10
10
10
10
10
10
10
10
10
10
10
10
10
10
10
10
10
10
10
10
10
10
10
10
10
10
10
10
10
10
10
10
10
10
10
10
10
10
10
10
10
10
10
10
10
10
10
10
10
10
10
10
10
10
10
10
10
10
10
10
10
10
10
10
10
10
10
10
10
10
10
10
10
10
10
10
10
10
10
10
10
10
10
10
10
10
10
10
10
10
10
10
10
10
10
10
10
10
10
10
10
10
10
10
10
10
10
10
10
10
10
10
10
10
10
10
10
10
10
10
10
10
10
10
10
10
10
10
10
10
10
10
10
10
10
10
10
10
10
10
10
10
10
10
10
10
10
10
10
10
10
10
10
10
10
10
10
10
10
10
10
10
10
10
10
10
10
10
10
10
10
10
10
10
10
10
10
10
10
10
10
10
10
10
10
10
10
10
10
10
10
10
10
10
10
10
10
10
10
10
10
10
10
10
10
10
10
10
10
10
10
10
10
10
10
10
10
10
10
10
10
10
10
10
10
10
10
10
10
10
10
10
10
10
10
10
10
10
10
10
10
10
10
10
10
10
10
10
10
10
10
10
10
10
10
10
10
10
10
10
10
10
10
10
10
10
10
10
10
10
10
10
10
10
10
10
10
10
10
10
10
10
10
10
10
10
10
10
10
10
10
10
10
10
10
10
10
10
10
10
10
10
10
10
10
10
10
10
10
10
10
10
10
10
10
10
10
10
10
10
10
10
10
10
10
10
10
10
10
10
10
10
10
10
10
10
10
10
10
10
10
10
10
10
10
10
10
10
10
10
10
10
10
10
10
10
10
10
10
10
10
10
10
10
10
10
10
10
10
10
10
10
10
10
10
10
10
10
10
10
10
10
10
10
10
10
10
10
10
10
10
10
10
10
10
10
10
10
10
10
10
10
10
10
10
10
10
10
10
10
10
10
10
10
10
10
10
10
10
10
10
10
10
10
10
10
10
10
10
10
10
10
10
10
10
10
10
10
10
10
10
10
10
10
10
10
10
10
10
10
10
10
10
10
10
10
10
10
10
10
10
10
10
10
10
10
10
10
10
10
10
10
10
10
10
10
10
10
10
10
10
10
10
10
10
10
10
10
10
10
10
10
10
10
10
10
10
10
10
10
10
10
10
10
10
10
10
10
10
10
10
10
10
10
10
10
10
10
10
10
10
10
10
10
10
10
10
10
10
10
10
10
10
10
10
10
10
10
10
10
10
10
10
10
10
10
10
10
10
10
10
10
10
10
10
10
10
10
10
10
10
10
10
10
10
10
10
10
10
10
10
10
10
10
10
10
10
10
10
10
10
10
10
10
10
10
10
10
10
10
10
10
10
10
10
10
10
10
10
10
10
10
10
10
10
10
10
10
10
10
10
10
10
10
10
10
10
10
10
10
10
10
10
10
10
10
10
10
10
10
10
10
10
10
10
10
10
10
10
10
10
10
10
10
10
10
10
10
10
10
10
10
10
10
10
10
10
10
10
10
10
10
10
10
10
10
10
10
10
10
10
10
10
10
10
10
10
10
10
10
10
10
10
10
10
10
10
10
10
10
10
10
10
10
10
10
10
10
10
10
10
10
10
10
10
10
10
10
10
10
10
10
10
10
10
10
10
10
10
10
10
10
10
10
10
10
10
10
10
10
10
10
10
10
10
10
10
10
10
10
10
10
10
10
10
10
10
10
10
10
10
10
10
10
10
10
10
10
10
10
10
10
10
10
10
10
10
10
10
10
10
10
10
10
10
10
10
10
10
10
10
10
10
10
10
10
10
10
10
10
10
10
10
10
10
10
10
10
10
10
10
10
10
10
10
10
10
10
10
10
10
10
10
10
10
10
10
10
10
10
10
10
10
10
10
10
10
10
10
10
10
10
10
10
10
10
10
10
10
10
10
10
10
10
10
10
10
10
10
10
10
10
10
10
10
10
10
10
10
10
10
10
10
10
10
10
10
10
10
10
10
10
10
10
10
10
10
10
10
10
10
10
10
10
10
10
10
10
10
10
10
10
10
10
10
10
10
10
10
10
10
10
10
10
10
10
10
10
10
10
10
10
10
10
10
10
10
10
10
10
10
10
10
10
10
10
10
10
10
10
10
10
10
10
10
10
10
10
10
10
10
10
10
10
10
10
10
10
10
10
10
10
10
10
10
10
10
10
10
10
10
10
10
10
10
10
10
10
10
10
10
10
10
10
10
10
10
10
10
10
10
10
10
10
10
10
10
10
10
10
10
10
10
10
10
10
10
10
10
10
10
10
10
10
10
10
10
10
10
10
10
10
10
10
10
10
10
10
10
10
10
10
10
10
10
10
10
10
10
10
10
10
10
10
10
10
10
10
10
10
10
10
10
10
10
10
10
10
10
10
10
10
10
10
10
10
10
10
10
10
10
10
10
10
10
10
10
10
10
10
10
10
10
10
10
10
10
10
10
10
10
10
10
10
10
10
10
10
10
10
10
10
10
10
10
10
10
10
10
10
10
10
10
10
10
10
10
10
10
10
10
10
10
10
10
10
10
10
10
10
10
10
10
10
10
10
10
10
10
10
10
10
10
10
10
10
10
10
10
10
10
10
10
10
10
10
10
10
10
10
10
10
10
10
10
10
10
10
10
10
10
10
10
10
10
10
10
10
10
10
10
10
10
10
10
10
10
10
10
10
10
10
10
10
10
10
10
10
10
10
10
10
10
10
10
10
10
10
10
10
10
10
10
10
10
10
10
10
10
10
10
10
10
10
10
10
10
10
10
10
10
10
10
10
10
10
10
10
10
10
10
10
10
10
10
10
10
10
10
10
10
10
10
10
10
10
10
10
10
10
10
10
10
10
10
10
10
10
10
10
10
10
10
10
10
10
10
10
10
10
10
10
10
10
10
10
10
10
10
10
10
10
10
10
10
10
10
10
10
10
10
10
10
10
10
10
10
10
10
10
10
10
10
10
10
10
10
10
10
10
10
10
10
10
10
10
10
10
10
10
10
10
10
10
10
10
10
10
10
10
10
10
10
10
10
10
10
10
10
10
10
10
10
10
10
10
10
10
10
10
10
10
10
10
10
10
10
10
10
10
10
10
10
10
10
10
10
10
10
10
10
10
10
10
10
10
10
10
10
10
10
10
10
10
10
10
10
10
10
10
10
10
10
10
10
10
10
10
10
10
10
10
10
10
10
10
10
10
10
10
10
10
10
10
10
10
10
10
10
10
10
10
10
10
10
10
10
10
10
10
10
10
10
10
10
10
10
10
10
10
10
10
10
10
10
10
10
10
10
10
10
10
10
10
10
10
10
10
10
10
10
10
10
10
10
10
10
10
10
10
10
10
10
10
10
10
10
10
10
10
10
10
10
10
10
10
10
10
10
10
10
10
10
10
10
10
10
10
10
10
10
10
10
10
10
10
10
10
10
10
10
10
10
10
10
10
10
10
10
10
10
10
10
10
10
10
10
10
10
10
10
10
10
10
10
10
10
10
10
10
10
10
10
10
10
10
10
10
10
10
10
10
10
10
10
10
10
10
10
10
10
10
10
10
10
10
10
10
10
10
10
10
10
10
10
10
10
10
10
10
10
10
10
10
10
10
10
10
10
10
10
10
10
10
10
10
10
10
10
10
10
10
10
10
10
10
10
10
10
10
10
10
10
10
10
10
10
10
10
10
10
10
10
10
10
10
10
10
10
10
10
10
10
10
10
10
10
10
10
10
10
10
10
10
10
10
10
10
10
10
10
10
10
10
10
10
10
10
10
10
10
10
10
10
10
10
10
10
10
10
10
10
10
10
10
10
10
10
10
10
10
10
10
10
10
10
10
10
10
10
10
10
10
10
10
10
10
10
10
10
10
10
10
10
10
10
10
10
10
10
10
10
10
10
10
10
10
10
10
10
10
10
10
10
10
10
10
10
10
10
10
10
10
10
10
10
10
10
10
10
10
10
10
10
10
10
10
10
10
10
10
10
10
10
10
10
10
10
10
10
10
10
10
10
10
10
10
10
10
10
10
10
10
10
10
10
10
10
10
10
10
10
10
10
10
10
10
10
10
10
10
10
10
10
10
10
10
10
10
10
10
10
10
10
10
10
10
10
10
10
10
10
10
10
10
10
10
10
10
10
10
10
10
10
10
10
10
10
10
10
10
10
10
10
10
10
10
10
10
10
10
10
10
10
10
10
10
10
10
10
10
10
10
10
10
10
10
10
10
10
10
10
10
10
10
10
10
10
10
10
10
10
10
10
10
10
10
10
10
10
10
10
10
10
10
10
10
10
10
10
10
10
10
10
10
10
10
10
10
10
10
10
10
10
10
10
10
10
10
10
10
10
10
10
10
10
10
10
10
10
10
10
10
10
10
10
10
10
10
10
10
10
10
10
10
10
10
10
10
10
10
10
10
10
10
10
10
10
10
10
10
10
10
10
10
10
10
10
10
10
10
10
10
10
10
10
10
10
10
10
10
10
10
10
10
10
10
10
10
10
10
10
10
10
10
10
10
10
10
10
10
10
10
10
10
10
10
10
10
10
10
10
10
10
10
10
10
10
10
10
10
10
10
10
10
10
10
10
10
10
10
10
10
10
10
10
10
10
10
10
10
10
10
10
10
10
10
10
10
10
10
10
10
10
10
10
10
10
10
10
10
10
10
10
10
10
10
10
10
10
10
10
10
10
10
10
10
10
10
10
10
10
10
10
10
10
10
10
10
10
10
10
10
10
10
10
10
10
10
10
10
10
10
10
10
10
10
10
10
10
10
10
10
10
10
10
10
10
10
10
10
10
10
10
10
10
10
10
10
10
10
10
10
10
10
10
10
10
10
10
10
10
10
10
10
10
10
10
10
10
10
10
10
10
10
10
10
10
10
10
10
10
10
10
10
10
10
10
10
10
10
10
10
10
10
10
10
10
10
10
10
10
10
10
10
10
10
10
10
10
10
10
10
10
10
10
10
10
10
10
10
10
10
10
10
10
10
10
10
10
10
10
10
10
10
10
10
10
10
10
10
10
10
10
10
10
10
10
10
10
10
10
10
10
10
10
10
10
10
10
10
10
10
10
10
10
10

POINT_DATA	625
SCALARS u_x double 1
LOOKUP_TABLE  table1
0.0286679
0.0274576
0.023688
0.0196686
0.0196144
0.0194806
0.0112693
0.00359284
0
0.0123456
0.0218554
0.027248
0.0313156
0.0325688
-0.0325155
-0.0309145
-0.0262665
-0.0270216
-0.026917
-0.0223104
-0.0120505
0
0
-0.010774
-0.0190196
-0.0241467
-0.0275526
-0.028549
0.0303414
0.0294364
0.0282942
0.0306063
0.0322668
0.0279639
0.0261151
0.0293736
0.0257547
0.0250059
0.0231284
0.0202702
0.0219914
0.0209664
0.0196528
0.0211023
0.0207351
0.0165795
0.0155303
0.0170361
0.0115401
0.00760093
0.00636979
0.00403172
0.00661942
-0.0319297
-0.0300348
-0.0303668
-0.0293002
-0.0282049
-0.027629
-0.0262915
-0.0291369
-0.0253879
-0.0244544
-0.0227762
-0.0258332
-0.0256948
-0.0270051
-0.0254255
-0.0202491
-0.0216575
-0.0163618
-0.015337
-0.0172789
-0.0112646
-0.00652172
-0.00599069
-0.0020116
-0.00566785
-0.00161147
-0.00163982
-0.0015437
-0.00147432
-0.00125056
-0.00367886
-0.00369211
-0.00366413
-0.00086336
-0.000901479
-0.000514841
0.000393164
-0.000190712
0.00188422
0.00191225
0.00188726
0.00181388
0.00151921
0.0014724
0.0014933
0.00123223
0.00068435
0.000482472
0.000128469
5.57129e-05
-0.0023252
-0.00236658
0.000371778
0.000155996
0.000242675
-0.000934979
-0.00237036
2.73633e-05
0.000143431
-3.15842e-05
4.59953e-05
-0.000351573
-0.000137482
0.000166274
0.0295693
0.0293612
0.0285361
0.0309452
0.0303682
0.0299899
0.0290115
0.0284527
0.0279498
0.0296358
0.0305303
0.0316425
0.0325104
0.0314942
0.0313057
0.031898
0.0277325
0.02685
0.029651
0.0287888
0.0270454
0.0261719
0.0251543
0.0269591
0.0249279
0.0303726
0.0287197
0.0275996
0.0283026
0.0265522
0.0244769
0.0235981
0.0261677
0.0254124
0.0241013
0.0236418
0.0226464
0.0225248
0.0228073
0.021033
0.0217813
0.0211922
0.019643
0.0209896
0.0219233
0.0210646
0.0220339
0.0202596
0.0196303
0.0203108
0.0203458
0.0196647
0.020359
0.0215813
0.0209441
0.0211924
0.0208246
0.0202381
0.0177001
0.0174077
0.019133
0.0185791
0.016035
0.0140635
0.013576
0.0142509
0.0113687
0.0193893
0.0168956
0.0144321
0.0146453
0.0120072
0.00886954
0.00859531
0.0100041
0.0093784
0.00715597
0.00474908
0.00432726
0.00615529
0.00895144
0.00387064
0.00457495
0.00340033
0
0.00450087
-0.0322117
-0.0312425
-0.031429
-0.0315453
-0.0306061
-0.0309707
-0.0302598
-0.0293581
-0.0294879
-0.0301252
-0.0297259
-0.0284702
-0.0279236
-0.0288884
-0.0291615
-0.0283904
-0.0292325
-0.0285751
-0.0259355
-0.025336
-0.0269789
-0.0278038
-0.0270316
-0.0300846
-0.0283452
-0.0279321
-0.0260241
-0.0272893
-0.0266863
-0.0247146
-0.0252759
-0.0248616
-0.0235818
-0.0222545
-0.0235624
-0.0240577
-0.0234141
-0.0255026
-0.0253098
-0.0263909
-0.0263871
-0.0257775
-0.0250399
-0.0246385
-0.0270208
-0.0263506
-0.0269666
-0.0262157
-0.0262848
-0.0255711
-0.024272
-0.0208972
-0.0215926
-0.0198725
-0.0204077
-0.0213104
-0.0223298
-0.0228622
-0.0188703
-0.0183251
-0.013685
-0.0131197
-0.0158996
-0.0180487
-0.0172755
-0.0196287
-0.0166683
-0.0148502
-0.011616
-0.0143071
-0.0140924
-0.01087
-0.00931474
-0.00899681
-0.00363586
-0.00311149
-0.00600817
-0.00849709
-0.00806565
0
-0.00385826
0
-0.00311368
-0.00359436
-0.00574057
-0.00814061
0.0134006
-0.00164184
0.0134217
-0.0164138
-0.0166376
-0.01672
-0.0168126
0.0132888
0.0129173
0.0132105
-0.00154044
-0.0161029
0.0125198
0.0116523
0.0120915
-0.00150754
-0.0156224
0.0111771
-0.00146533
-0.013679
-0.014582
-0.015147
0.00798219
0.00798308
0.00798139
0.00798447
-0.00368876
-0.0153467
-0.0153564
0.00797402
-0.00367546
-0.0152973
-0.0153331
-0.0153425
0.00807033
0.0093507
0.00605371
0.00695638
-0.000872634
-0.0100693
-0.0113854
0.00527374
-0.000887621
-0.00622342
-0.0077833
-0.00891773
0.0045735
-4.44884e-05
-0.00103445
-0.00289022
-0.00452543
0.00321853
0
0.00183696
0.000181715
-0.000868863
0.0170103
0.0168324
0.0171627
0.0170995
0.00187446
-0.0132673
-0.0132103
0.00189441
0.0165291
-0.0131444
-0.0130046
-0.0127527
0.00186236
0.0161728
-0.0124476
-0.0121329
-0.0116509
0.0150627
0.0143092
0.0156452
0.00169073
-0.0112181
0.0130583
0.0124208
0.0135529
0.00143427
-0.0106253
0.00149069
0.0116381
-0.00993975
-0.00936165
-0.00857973
0.00137155
0.0106128
-0.00776481
-0.00697975
-0.00588258
0.00805389
0.00657579
0.00931302
0.000990011
-0.00494927
0.00363281
0.00220782
0.00512125
0.000544326
-0.00382299
5.7777e-05
0
-0.00257403
-0.00155069
0
-0.00077971
0.0143557
-0.0159325
-0.0150999
-0.0142053
0.0152857
0.000986089
0.0162373
0.00867105
-0.014688
-0.00301339
0.00938758
0.010286
-0.00175935
-0.0141019
-0.0136224
0.00917609
0.00862173
0.00960372
-0.00173383
-0.0129494
-0.00299384
-0.01392
-0.0146087
0
0
0.00203404
-0.000240624
0
0.000213098
-0.000857662
-0.000851315
0.0143348
0.0151871
-0.0138037
0.00108599
0.0159666
0.0152476
0.0161287
0.00101326
7.49819e-05
-0.0141051
-0.0139945
-0.015032
-0.000759544
-0.015768
0.0142519
-0.0135487
0.000200716
0.0141284
0.0138814
0.0156624
0.00103395
0.0147706
-0.000725577
-0.0146648
-0.0155411
-0.0144348
-0.0152982
-0.000695267
-0.0133124
-0.012051
-0.0140453
-0.00169062
0.0109513
-0.013137
0.0100996
-0.0016817
-0.0139542
-0.0146473
-0.0146856
-0.0146943
-0.00236907
0.015324
0.0134563
0.0144183
0.000904016
-0.0125679
-0.0132642
0.000156936
-0.0129518
0.0118503
0.011553
0.0115085
0.000716098
-0.00995061
0.0123089
-0.0120288
0.000643555
0.0120533
0.0120315
-0.0112568
4.64097e-05
-0.0106131
-0.012676
-0.0132464
-0.000565304
-0.0119028
-0.000475531
-0.011974
-0.00105588
-0.0125797
-0.0130639
0.0148582
0.0135396
0.000889411
0.0131046
0.0126809
3.36987e-05
0.012828
0.000780455
0.0136281
-0.014352
-0.000707955
-0.0133708
-0.0148274
-0.0137263
-0.000732757
0.000332888
0.00237192
0.00320167
-0.00136389
0.0042778
0.000113656
-0.0015098
-0.00125878
0.000387766
0.00229217
0.00315555
0.00567569
0.00541216
0.0062917
0.000218818
-0.00548176
0.00385156
0.000461401
0.00340602
0.01002
0.00865039
0.0093256
0.000483289
-0.00668101
0.010945
-0.0092596
0.000671317
0.0102171
0.00960306
-0.00838578
0.000120988
-0.00756804
0.0100848
0.0105348
-0.000947442
-0.000428281
-0.0104562
-0.00977652
0.0104198
0.000161434
0.0110063
-0.0104906
-0.00040034
-0.0112045
-0.00373828
-0.00255724
-0.000327109
-0.00819686
-0.000447274
-0.00935883
-0.00826976
-0.000494374
-0.00736467
-0.00591534
-0.000220026
-0.00577148
0.00885806
0.00723342
0.000442007
0.00776912
0.00679961
-0.000153129
-0.00301271
0.00863445
0.00935458
-0.00301841
0.00860734
0.00929084
-0.00407694
-2.95699e-05
-0.00295381
0.00923373
0.00994338
-0.00168489
0.00104346
-0.0158857
0.0161901
0.0150389
-0.000686281
-0.014009
0.000981649
0.00064129
-0.0125615
0.014024
0.0143452
0.0128812
-0.0138961
-0.0141029
-0.000684761
0.000325607
0.00464723
0.000625241
-0.000336789
0.000442226
-0.00903311
-0.00730537
0.00839382
-0.00302481
0.00193626
-0.0134823
0.00866163
-0.0111893
0.00769472
-0.0148751
-0.00431997
0.0109571
0.00975981
-0.00236505
-0.000386869
-0.00264278

SCALARS u_y double 1
LOOKUP_TABLE  table2
-0.0113316
-0.00739991
-0.00363416
-0.00358641
-0.000977357
-0.00168188
0.00120952
-0.000359828
0
-0.00148241
-0.0028621
-0.00498302
-0.00791693
-0.0112953
-0.0121029
-0.0091449
-0.00630777
-0.00661478
-0.00391877
-0.00340565
-0.00189673
0
0
0.000802456
-0.00208882
-0.00504661
-0.00867644
-0.0124043
-0.00945061
-0.00763895
-0.00931307
-0.0112959
-0.00954376
-0.00593924
-0.00565827
-0.00640871
-0.00434106
-0.00390701
-0.00319923
-0.00216889
-0.00244896
-0.00223209
-0.00223474
-0.00361237
-0.00113643
-0.00109495
-0.000385586
-0.0022115
-0.00014086
-0.000975904
4.52493e-05
-0.000374266
0.00100281
-0.0107751
-0.010664
-0.0124303
-0.00886832
-0.0105685
-0.00719432
-0.00684505
-0.00762893
-0.0057307
-0.00522465
-0.00433821
-0.00659165
-0.00533772
-0.0053082
-0.00382962
-0.0027163
-0.00370194
-0.001389
-0.000473251
-0.00240456
-0.00064817
-0.00168258
-0.000235738
0.000292954
0.000466813
-0.0100824
-0.0118501
-0.00823956
-0.00660334
-0.00496044
-0.00377058
-0.00510829
-0.00245757
-0.00130311
-0.00237644
-0.000237414
-0.000230145
0.000282656
-0.0118382
-0.0100312
-0.00828813
-0.00662833
-0.00504559
-0.00378293
-0.00251559
-0.00137653
-0.000365213
-0.000108543
-0.000161392
-0.0118263
-0.00510899
-0.00244919
-5.81211e-05
-0.0100497
-0.00824447
-0.00379064
-0.00377902
-0.00659755
-0.00382184
-0.00487108
-0.000223624
-4.82674e-05
-0.00131567
-0.00243102
-0.010398
-0.00939162
-0.0103367
-0.00862149
-0.00776319
-0.0085134
-0.00844301
-0.00751367
-0.00834416
-0.011345
-0.0103837
-0.0112296
-0.0104036
-0.0103608
-0.00948881
-0.00872796
-0.0066736
-0.00653539
-0.00691398
-0.00677339
-0.00581277
-0.00492781
-0.00471587
-0.00512206
-0.00396802
-0.00715804
-0.00614254
-0.00537809
-0.0056359
-0.00468328
-0.00372402
-0.00337138
-0.00439006
-0.00408558
-0.00356192
-0.00343403
-0.00300169
-0.00282065
-0.00301426
-0.00247967
-0.00265954
-0.00227508
-0.00189324
-0.00189828
-0.00286742
-0.00288089
-0.00366272
-0.0016131
-0.00160588
-0.00223626
-0.00289229
-0.00289306
-0.00359172
-0.00227018
-0.00134339
-0.00171465
-0.00163026
-0.00101569
-0.00138222
-0.00101257
-0.00197272
-0.00162227
-0.000760358
-7.8743e-05
0.000357833
-0.000586925
0.000578013
-0.00258311
-0.00159793
-0.00116876
-0.00175176
-0.000861008
-4.67372e-06
0.000365518
-0.00129171
-0.00066372
-0.000397113
-0.00086845
3.09831e-05
0.000378939
0.000962583
-0.000601269
-0.000183055
0.000226837
0
0.000944957
-0.0114706
-0.0115058
-0.0122963
-0.00999294
-0.0098619
-0.0107324
-0.0115435
-0.0115285
-0.0124296
-0.00897899
-0.00978375
-0.00876741
-0.00963346
-0.00971963
-0.0106046
-0.0114921
-0.00820348
-0.0080004
-0.00620364
-0.00596928
-0.00700533
-0.00788991
-0.00773883
-0.0084088
-0.00738413
-0.00690758
-0.00601445
-0.00661475
-0.00639542
-0.00537305
-0.00585795
-0.00548853
-0.00444756
-0.00396238
-0.0048605
-0.00512596
-0.00466815
-0.0064977
-0.00599017
-0.00661473
-0.0059745
-0.00599282
-0.00535173
-0.0046004
-0.00596731
-0.00531291
-0.00462713
-0.0039007
-0.00463033
-0.00463427
-0.00367973
-0.00304937
-0.00360809
-0.00239573
-0.0029097
-0.00335773
-0.00398173
-0.00439625
-0.00238715
-0.00197298
-0.000435762
0.000107589
-0.000980826
-0.00153946
-0.0011151
-0.00294537
-0.00183609
-0.00204341
-0.0012361
-0.00142311
-0.000900841
5.36242e-05
-0.00173988
-0.00108252
-0.00123246
-0.000416519
-0.00096075
-0.000508496
0.000209099
0
-8.28703e-05
0
0.000506045
1.7377e-05
0.000207237
0.000726675
-0.0106809
-0.0109433
-0.0115689
-0.00958656
-0.0104219
-0.0112295
-0.0120495
-0.00969951
-0.00780049
-0.00874624
-0.00917472
-0.00871068
-0.00697906
-0.00518876
-0.00610915
-0.00743287
-0.00791902
-0.00435205
-0.00577077
-0.00557336
-0.00635938
-0.00715093
-0.00366371
-0.00435587
-0.00236051
-0.00300108
-0.00443107
-0.00519903
-0.00585997
-0.0017257
-0.00311439
-0.00319242
-0.00388091
-0.00454543
-0.00143009
-0.00205412
-3.89749e-05
-0.000776616
-0.00186446
-0.00240823
-0.00282721
0.000593008
-0.000763082
-0.00112779
-0.0015331
-0.00197853
0.000387926
-0.000250737
-0.00051771
-0.00092431
-0.0010232
0.000548574
0
0.000637616
0.000177984
2.92917e-05
-0.00978478
-0.00894397
-0.0114893
-0.0106446
-0.010926
-0.0121614
-0.0112186
-0.00916365
-0.00812578
-0.0102954
-0.00939804
-0.00845516
-0.0074458
-0.00730527
-0.00749776
-0.00671713
-0.00587548
-0.00574953
-0.005113
-0.00652554
-0.00579758
-0.0050328
-0.00383419
-0.00329294
-0.00447687
-0.0043778
-0.00428463
-0.00318427
-0.00268477
-0.00366648
-0.00307563
-0.00228745
-0.00191175
-0.00221785
-0.00133421
-0.000915224
-0.000352166
-0.00132627
-0.00107356
-0.00179529
-0.000809745
0.000217758
-0.000604744
-0.00033947
-0.000761746
-9.6657e-06
0.000522393
-2.83355e-06
0
0.000125554
0.00026816
0
-0.0118413
-0.0115549
-0.0121485
-0.0121251
-0.0121092
-0.0115853
-0.0118644
-0.0115673
-0.00436397
-0.00585984
-0.00510916
-0.00438773
-0.00438709
-0.00505169
-0.00582596
-0.00573745
-0.00180589
-0.00174699
-0.00189221
-0.00246169
-0.00301341
-0.00244797
-0.0031344
-0.00316856
0
0
-0.000203944
3.80714e-06
0
-3.9532e-05
0.000146232
0.000241838
-0.0106653
-0.00975137
-0.00942419
-0.00914739
-0.00888031
-0.0106643
-0.00975089
-0.0109332
-0.0109351
-0.0112098
-0.010323
-0.0112312
-0.0109502
-0.0103883
-0.00972355
-0.00847643
-0.00914276
-0.00880102
-0.00787478
-0.00802894
-0.00826144
-0.00795383
-0.0100676
-0.00946371
-0.00949802
-0.00854222
-0.00860731
-0.00824675
-0.00457994
-0.00375224
-0.00521682
-0.00445256
-0.00374993
-0.00383812
-0.00368414
-0.00377812
-0.00386223
-0.00387249
-0.00455593
-0.00521393
-0.00444566
-0.00717915
-0.0070249
-0.00710175
-0.00661796
-0.00598882
-0.00760196
-0.00739513
-0.00680094
-0.00303156
-0.00391636
-0.00353076
-0.00320144
-0.00323771
-0.00364843
-0.00509604
-0.00440648
-0.00408921
-0.00439507
-0.00449354
-0.00435434
-0.00392142
-0.00527308
-0.00541392
-0.00490217
-0.00470152
-0.00437882
-0.0042712
-0.0043963
-0.0044897
-0.00510146
-0.00637371
-0.00545001
-0.00577511
-0.00618896
-0.00531177
-0.00576023
-0.00465575
-0.00495671
-0.00489065
-0.00698075
-0.00573931
-0.0060833
-0.00777841
-0.0068965
-0.00741246
4.50226e-05
0.000105295
0.000144018
-0.000158814
6.95089e-05
-0.000237791
-0.000146207
-8.44206e-05
-2.59843e-06
1.77835e-06
-3.73401e-05
-0.000156124
0.000425571
-0.000623858
-0.000186225
8.82404e-05
-0.000130593
-3.99307e-05
-0.000191746
-0.00190224
-0.00160742
-0.0017478
-0.00135868
-0.000599853
-0.00247436
-0.00239346
-0.00246795
-0.00228388
-0.00213371
-0.00164481
-0.00183248
-0.00115149
-0.00249746
-0.00307106
-0.00311798
-0.00242567
-0.00266539
-0.00254743
-0.00265379
-0.00311886
-0.00328516
-0.00336635
-0.00379996
-0.00351996
8.01464e-05
-9.7208e-05
-0.000174228
-0.00137486
-0.00181698
-0.00205832
-0.00158163
-0.00067418
-0.000876999
-0.000673544
-0.00010395
-0.000348088
-0.00144131
-0.000635289
-0.000769575
-0.000989947
-0.000302051
-0.000734835
-0.00443423
-0.00300512
-0.00367131
-0.0031183
-0.00236201
-0.00299931
-0.000304744
-0.000193649
-0.000452461
-0.00235767
-0.00300598
-0.00310811
-0.0100291
-0.011251
-0.0106541
-0.00883411
-0.00914747
-0.0045647
-0.00741003
-0.0038081
-0.00490853
-0.00627153
-0.00560063
-0.0042778
-0.00620576
-0.0076816
-0.00658186
4.12865e-05
-0.0003768
-0.00183679
-0.00303792
-9.24264e-05
-0.00179351
-0.00117406
-0.00118945
-0.00377581
0.000200511
-0.00520061
-0.00366841
-0.00405909
-0.000999035
-0.0103519
-0.000610181
-0.00286923
-0.00238889
-0.00310379
-0.00126896
-0.000292042

SCALARS u_z double 1
LOOKUP_TABLE  table3
0.213674
0.151801
0.0946426
0.0909717
0.0442777
0.0481624
0.0139263
0.00027728
0
0.0151932
0.0484406
0.096676
0.153033
0.214807
0.214601
0.151594
0.0951296
0.0910074
0.0443606
0.0475061
0.0149127
0
0
0.0143284
0.0488268
0.0962233
0.153161
0.214904
0.18297
0.152544
0.182243
0.213885
0.183599
0.123367
0.122763
0.123838
0.0960883
0.071406
0.0711603
0.0487818
0.0703956
0.0690646
0.0675845
0.0925631
0.0458935
0.0298631
0.029862
0.0295216
0.0152955
0.005396
0.00536104
0.000194412
0.00524682
0.182407
0.183135
0.213896
0.152456
0.18372
0.123279
0.12377
0.122523
0.0961112
0.0704941
0.0717437
0.0925688
0.0690396
0.0676346
0.0459019
0.0485842
0.0718543
0.0294686
0.0293152
0.0292722
0.015334
0.0054457
0.00660018
0.000401485
0.00584652
0.182269
0.213456
0.151381
0.122385
0.0945545
0.0675948
0.0909826
0.0442879
0.028952
0.047196
0.0135589
0.0044416
-0.0003956
0.214574
0.18356
0.152911
0.123571
0.0960069
0.0712776
0.0480465
0.0288815
0.0138855
0.00488257
-7.19799e-05
0.213787
0.0925489
0.0458797
4.6186e-05
0.182951
0.152362
0.0702059
0.0689972
0.123099
0.0711446
0.0952443
0.00522498
0.0134867
0.0292154
0.048194
0.198129
0.182637
0.197831
0.167954
0.15282
0.167663
0.167326
0.152183
0.16691
0.213603
0.198423
0.214591
0.199131
0.198809
0.183318
0.168236
0.137463
0.13714
0.138058
0.13779
0.123055
0.109058
0.108686
0.10943
0.0954702
0.138271
0.123648
0.109749
0.109902
0.0965179
0.0833633
0.0828643
0.0837885
0.0836721
0.0714616
0.059717
0.0596588
0.0708654
0.0823485
0.048779
0.0596544
0.0593158
0.0485218
0.0588893
0.0816046
0.0808087
0.0934839
0.0566674
0.0559236
0.0683407
0.0800422
0.079275
0.0917483
0.0697641
0.0468297
0.0581678
0.0574502
0.0450732
0.0388297
0.038713
0.0388452
0.0388991
0.0298449
0.0218019
0.0217206
0.0219057
0.0147061
0.0386188
0.0297903
0.0218709
0.0215566
0.0154686
0.00990041
0.00930708
0.00965442
0.010006
0.00548969
0.0024115
0.00262671
0.00536518
0.00906813
0.000162498
0.00263541
0.00267187
0
0.00285628
0.198061
0.19824
0.214038
0.166979
0.167436
0.182773
0.198502
0.198881
0.214484
0.152046
0.167772
0.152797
0.168376
0.168059
0.183431
0.199209
0.137346
0.137737
0.109567
0.109763
0.123568
0.138054
0.138306
0.136942
0.122954
0.108556
0.0957122
0.109051
0.109436
0.0962206
0.0825099
0.0830975
0.0588307
0.0597058
0.0712171
0.0835692
0.0838929
0.0935728
0.0816423
0.091757
0.0800544
0.0808068
0.0697748
0.0580578
0.0793166
0.0683322
0.0559811
0.0451276
0.0567107
0.0573984
0.0467328
0.0481924
0.0600246
0.0486633
0.0601582
0.0600232
0.0718184
0.0839366
0.0383944
0.0387688
0.0214623
0.0213758
0.0295821
0.0388037
0.0386809
0.0381921
0.0295066
0.0214198
0.0152239
0.0217292
0.0218498
0.0149729
0.0094238
0.00991298
0.00251558
0.00317413
0.00619717
0.0102638
0.0104292
0
0.00320253
0
0.00276242
0.00281236
0.00633876
0.00983605
0.197862
0.197861
0.21361
0.166865
0.182332
0.197944
0.213954
0.182208
0.151544
0.166841
0.166815
0.151411
0.136876
0.108405
0.12246
0.136655
0.136781
0.0945123
0.108263
0.094753
0.108335
0.122323
0.0792726
0.0909735
0.0559276
0.0675836
0.0792785
0.0792968
0.0909943
0.0442807
0.0559268
0.0443121
0.0559301
0.0676033
0.0380375
0.047522
0.0211259
0.0291577
0.0375327
0.0377622
0.0472479
0.0135452
0.020816
0.013995
0.0209492
0.0287771
0.0085444
0.00838945
0.00171952
0.00471693
0.0087011
0.00455016
0
0.00199752
0.0017719
-9.00004e-05
0.183543
0.168143
0.214894
0.199091
0.199075
0.214573
0.199106
0.168151
0.152932
0.183618
0.168241
0.153
0.138094
0.138118
0.138162
0.123546
0.109584
0.109624
0.0963067
0.12366
0.109502
0.0960145
0.0711679
0.0595221
0.0835097
0.0833787
0.0835707
0.0595473
0.0480935
0.0714742
0.0596785
0.0483129
0.0381254
0.0382038
0.0382818
0.0288127
0.0209478
0.0209931
0.0143853
0.0291056
0.0207563
0.0139326
0.00488078
0.00189178
0.00910683
0.00881366
0.00917866
0.00180598
0
0.0050955
0.0021559
0
0.213573
0.213624
0.213686
0.213826
0.214307
0.213832
0.214189
0.214374
0.0917513
0.0917548
0.0917487
0.0925776
0.0934682
0.0934858
0.092565
0.0935265
0.0458961
0.04508
0.0467463
0.0466552
0.046675
0.0450888
0.0458718
0.0451047
0
0
8.15955e-05
-0.000236208
0
-7.47886e-05
0.000189865
0.000307097
0.19809
0.182915
0.167988
0.167883
0.167882
0.198374
0.183254
0.198726
0.198365
0.198778
0.183337
0.198419
0.198086
0.182677
0.182589
0.152717
0.167578
0.167224
0.152044
0.152709
0.152615
0.152406
0.182613
0.167639
0.167281
0.152374
0.151923
0.151925
0.0696741
0.0586001
0.0807699
0.0814775
0.0821944
0.0580218
0.081485
0.0696268
0.0573787
0.056681
0.0683311
0.0800445
0.0807524
0.137888
0.137301
0.137615
0.123342
0.109361
0.137894
0.137539
0.123382
0.0594367
0.0827724
0.0710375
0.059534
0.0598216
0.0712295
0.0956913
0.0832147
0.0830733
0.0949437
0.0834637
0.0829993
0.0714526
0.0956263
0.0952832
0.0950641
0.0832297
0.0826437
0.0708837
0.0821692
0.0702903
0.0822774
0.123442
0.10914
0.109306
0.122873
0.108801
0.109028
0.0956454
0.0957491
0.0961402
0.122766
0.108779
0.109067
0.13718
0.123095
0.137129
0.00201578
0.0021536
0.00478325
0.00206601
0.0089961
0.00478563
0.00249158
0.00243666
0.00213443
0.00210803
0.0050659
0.0142897
0.0135742
0.0145746
0.0139277
0.0138536
0.00913052
0.00900696
0.005151
0.0383716
0.0383798
0.0384551
0.0290537
0.0211138
0.0484348
0.0483694
0.0481429
0.0483636
0.0480545
0.0384086
0.0382936
0.0291191
0.0586038
0.070249
0.0585179
0.047746
0.0478643
0.0482781
0.059054
0.0593915
0.0706976
0.0596237
0.0706915
0.0591761
0.00943373
0.00550652
0.00900845
0.0291118
0.0380373
0.0380896
0.02909
0.021178
0.0210575
0.0142623
0.0137898
0.0142886
0.0293041
0.021283
0.020961
0.0294119
0.0212438
0.0210223
0.0800301
0.0683326
0.0807854
0.0566577
0.0566514
0.0690072
0.00949148
0.0087512
0.00538741
0.0574152
0.0696605
0.0580122
0.183264
0.198152
0.198735
0.167574
0.167221
0.069
0.137872
0.071269
0.0828643
0.123167
0.109437
0.0833509
0.108834
0.137539
0.122762
0.00217689
0.00925758
0.038336
0.0590119
0.00514375
0.0383401
0.0212597
0.0293811
0.0683272
0.00216544
0.0815519
0.0800335
0.0713046
0.0212356
0.183014
0.00929723
0.0593418
0.0580743
0.0573845
0.0291241
0.00571251

SCALARS u_magnitude double 1
LOOKUP_TABLE  table4
0.215886
0.154442
0.0976297
0.0931428
0.0484376
0.0519802
0.0179556
0.00362145
0
0.0196327
0.0532197
0.100566
0.156404
0.217556
0.217388
0.154984
0.0988906
0.0951644
0.052036
0.0525945
0.0192666
0
0
0.0179451
0.052442
0.099335
0.155862
0.217146
0.185709
0.155545
0.184662
0.216359
0.186657
0.126636
0.125638
0.127435
0.0995747
0.0757586
0.0748929
0.0528701
0.0737913
0.0722114
0.0704194
0.0950068
0.0503731
0.0341744
0.0336612
0.0341562
0.0191611
0.00937248
0.00832569
0.00405372
0.00850597
0.185494
0.185888
0.216398
0.155499
0.186172
0.126542
0.126717
0.126171
0.0995728
0.0747979
0.0753972
0.0963317
0.0738592
0.0730198
0.0526128
0.0527051
0.0751385
0.0337348
0.0330882
0.0340765
0.0190379
0.00866138
0.00891663
0.00207209
0.00815624
0.182555
0.213791
0.151613
0.122572
0.0946928
0.0677998
0.0912007
0.0445071
0.0289942
0.0472644
0.0135708
0.0044649
0.000522269
0.214909
0.183844
0.153147
0.123762
0.0961514
0.0713931
0.0481355
0.0289405
0.0139071
0.00490755
0.000218478
0.214114
0.0927189
0.0460059
0.000379117
0.183227
0.152585
0.0703144
0.0691413
0.123275
0.0712473
0.0953687
0.00522996
0.0134913
0.0292454
0.0482556
0.200593
0.185221
0.200145
0.170999
0.156002
0.170537
0.170032
0.155002
0.169439
0.215947
0.201026
0.217202
0.202035
0.201554
0.186214
0.171455
0.140391
0.139896
0.141375
0.140928
0.126126
0.112262
0.111659
0.112818
0.0987508
0.141748
0.127088
0.113294
0.113627
0.100213
0.0869622
0.0862249
0.0878894
0.0875414
0.0755005
0.0643183
0.063883
0.0744125
0.0855016
0.0531783
0.0635621
0.0630289
0.0523813
0.0625469
0.0845468
0.0835587
0.0961153
0.0602017
0.0592906
0.0713301
0.0826382
0.0817288
0.0940486
0.0730612
0.0513175
0.0619318
0.0611298
0.0494187
0.042696
0.0424588
0.0433464
0.0431388
0.0338884
0.0259444
0.0256168
0.0261399
0.0185971
0.0432901
0.0342853
0.0262295
0.0261198
0.0196008
0.0132924
0.0126742
0.0139628
0.0137301
0.00902786
0.0053966
0.00506219
0.00817412
0.0127783
0.00392043
0.0052829
0.00433043
0
0.00541379
0.200991
0.201016
0.216682
0.170226
0.170496
0.185689
0.201126
0.201366
0.216858
0.155262
0.170666
0.155674
0.170948
0.170801
0.186037
0.20155
0.140662
0.140897
0.112765
0.112807
0.126672
0.141047
0.141135
0.14046
0.126395
0.112305
0.0993693
0.112608
0.112825
0.0994891
0.0864931
0.0869104
0.0635369
0.0638416
0.075171
0.087114
0.0872241
0.0972032
0.0856851
0.0957057
0.0845026
0.0850301
0.0743246
0.0632371
0.0840051
0.0734294
0.0623097
0.0523353
0.0626772
0.0630074
0.0527885
0.0526165
0.0638922
0.0526191
0.0635921
0.0637823
0.0753151
0.0871054
0.0428476
0.0429269
0.0254579
0.0250811
0.0335985
0.0428235
0.0423781
0.0430418
0.0339388
0.026144
0.0191893
0.0260552
0.0260158
0.0185026
0.0133641
0.0134306
0.00458984
0.0044643
0.00868482
0.0133343
0.0131859
0
0.0050149
0
0.0041931
0.00456389
0.00855436
0.0127885
0.198602
0.19817
0.214344
0.167945
0.183386
0.198966
0.214952
0.18295
0.152294
0.167591
0.167074
0.152514
0.137625
0.109153
0.123207
0.136866
0.137898
0.0952704
0.108426
0.0958974
0.109497
0.123465
0.0797577
0.091427
0.0565436
0.0681197
0.0794879
0.0809353
0.0924669
0.045026
0.0561339
0.0469868
0.0581235
0.0694713
0.0389105
0.0484767
0.0219762
0.0299861
0.0375891
0.0391558
0.0486825
0.0145478
0.0208489
0.0153578
0.0224009
0.0301921
0.00969918
0.00839331
0.00207241
0.00560867
0.00986081
0.00560034
0
0.00278767
0.00179006
0.000874003
0.18459
0.16922
0.215884
0.200108
0.199383
0.215326
0.199859
0.168411
0.154038
0.184375
0.169004
0.153763
0.138307
0.139254
0.138924
0.124322
0.110358
0.110804
0.0974981
0.124817
0.109669
0.0967985
0.0724575
0.0608933
0.0847207
0.0835059
0.0843524
0.059651
0.0495544
0.0722551
0.0604866
0.0491221
0.0381979
0.0397125
0.0390841
0.0296601
0.0217609
0.022524
0.0158534
0.030612
0.0207957
0.0147872
0.00611433
0.00292721
0.0104758
0.00883046
0.0099567
0.00180691
0
0.00571012
0.00266917
0
0.213902
0.214417
0.214623
0.214701
0.215118
0.214691
0.21452
0.215299
0.0922634
0.0931076
0.0919403
0.0931557
0.0941347
0.0936387
0.0938141
0.0946873
0.0468392
0.0459303
0.0477601
0.0467522
0.0485317
0.0452543
0.0480397
0.0475172
0
0
0.00204587
0.000337207
0
0.000229274
0.000890514
0.000936766
0.198894
0.183803
0.168818
0.168135
0.168873
0.199245
0.184221
0.199029
0.198666
0.199592
0.18416
0.199304
0.19839
0.18365
0.183403
0.153551
0.167827
0.16805
0.152879
0.15372
0.152842
0.153327
0.182892
0.168545
0.168269
0.153295
0.152934
0.15215
0.0710822
0.059944
0.0821478
0.0816165
0.0830055
0.0596141
0.0821911
0.0697495
0.0591773
0.0586709
0.0700398
0.081549
0.0809094
0.138922
0.138137
0.138551
0.123522
0.110243
0.138738
0.137738
0.124246
0.0606823
0.0836665
0.0720503
0.0596244
0.0607299
0.0723772
0.096579
0.0833338
0.0840427
0.0958038
0.0843392
0.0831135
0.0723429
0.0966068
0.0963518
0.0951921
0.0842078
0.082761
0.0720147
0.0822935
0.0715481
0.0834642
0.124496
0.110112
0.109462
0.123725
0.109666
0.10918
0.096614
0.0958805
0.0972244
0.123799
0.108933
0.110052
0.138198
0.12405
0.137331
0.00204358
0.00320548
0.00575769
0.00248068
0.00996164
0.00479288
0.00291699
0.0027439
0.00216937
0.00311414
0.00596844
0.0153764
0.0146196
0.0158869
0.0139306
0.014899
0.0099105
0.00901885
0.00617823
0.0397038
0.0393754
0.0396083
0.0290895
0.0221538
0.0497176
0.0493059
0.0482108
0.0494838
0.049051
0.0393477
0.0383376
0.0301085
0.0595176
0.0711008
0.0586085
0.0478095
0.0490655
0.0493239
0.0600249
0.0594736
0.0716246
0.0606331
0.0707947
0.0603302
0.0101477
0.00607212
0.00901607
0.030275
0.0380833
0.0392765
0.030284
0.0211945
0.0223255
0.015455
0.013792
0.0154141
0.0306476
0.0224876
0.0209797
0.0304368
0.0223075
0.0210357
0.0802095
0.0689415
0.0814081
0.0568236
0.0573502
0.0696944
0.0103345
0.00875339
0.00616067
0.0582007
0.0704308
0.0581198
0.183541
0.199106
0.199677
0.168479
0.167473
0.0705556
0.138075
0.0713735
0.0839546
0.124122
0.110515
0.0844487
0.109892
0.138473
0.122941
0.00220149
0.0103654
0.0383851
0.059091
0.00516355
0.0394306
0.0225105
0.0305797
0.0684983
0.00291178
0.0828223
0.0805844
0.0722912
0.0226088
0.183909
0.01027
0.0604131
0.0589371
0.057517
0.0291543
0.00630098

SCALARS S_xx double 1
LOOKUP_TABLE  table5
-0.000262016
-0.00203318
-0.00285721
-1.5527e-05
-4.22513e-05
-0.00604476
-0.00741065
-0.0036321
-0.0117408
-0.00928234
-0.00638253
-0.00426979
-0.00231955
-0.000233435
0.00121515
0.0024171
0.0048624
1.50581e-05
0.00020066
0.00507424
0.0110708
0.00794739
0.00998152
0.00801424
0.00509755
0.00382914
0.00152929
0.000504084
-0.000773443
-0.00210934
-0.000840756
-0.000313869
-0.000890047
-0.00321355
-0.00258615
-0.00364997
-0.00466942
-0.00409155
-0.00374095
-0.00563888
-0.00288175
-0.000383085
-6.70693e-05
-0.000126386
-0.000457
-0.007627
-0.00600638
-0.00812616
-0.0104351
-0.00845118
-0.00611087
-0.00503002
-0.0085871
0.0010206
0.0010813
0.000400624
0.00157109
0.000727118
0.00276448
0.00251722
0.00377345
0.00467326
0.00267189
0.00489372
0.000347884
0.000502863
0.000110201
0.000418154
0.00496747
0.00389686
0.00613962
0.00644071
0.00827418
0.0101148
0.0103027
0.00956911
0.0055528
0.00711595
0.000339162
8.65797e-05
0.000163937
8.14331e-05
0.00145715
2.05153e-05
-6.46386e-06
8.46413e-05
0.000101991
2.71016e-06
0.00342693
0.00148636
-0.00455118
-9.25293e-05
-3.92906e-05
-0.000168351
-0.000542803
-0.00176633
0.000129323
-0.000145989
-0.00133346
-0.00337832
-0.000733359
-0.00102253
0.000186337
8.18738e-06
-4.37779e-05
-0.00137533
0.000250223
-7.84363e-05
0.000514628
6.4182e-05
-0.000250805
0.000233072
-9.04127e-06
0.00138431
-4.43141e-05
-0.000638307
-3.88803e-05
-0.000388998
-0.00098183
-0.000572882
-0.00141669
-0.00213269
-0.00169041
-0.00151112
-0.00207995
-0.00145506
-0.000234448
-0.00041627
-0.000419877
-0.000513579
-0.000496933
-0.000894409
-0.00148963
-0.00233013
-0.00223126
-0.00305521
-0.00258553
-0.00280268
-0.00395869
-0.00359532
-0.00406459
-0.00505604
-0.00323992
-0.00344248
-0.00371369
-0.00381835
-0.00432207
-0.00461887
-0.00345879
-0.00402282
-0.00406018
-0.0044513
-0.00489028
-0.00458859
-0.00386821
-0.00262584
-0.00586805
-0.00463223
-0.00490035
-0.00578796
-0.00383256
-0.000905506
-0.000212708
-0.000369705
-9.93857e-05
-9.26845e-05
-0.000129697
-7.15706e-05
-2.9862e-05
-4.35053e-05
-0.00142328
-0.0023042
-0.00117038
-0.000427055
-0.000164811
-0.00579632
-0.00628423
-0.00771985
-0.00653287
-0.00646928
-0.00846778
-0.00701212
-0.00904203
-0.0108495
-0.00792906
-0.0078996
-0.00803484
-0.00833105
-0.00969492
-0.00943287
-0.00688604
-0.00860758
-0.00903765
-0.00790354
-0.0107389
-0.00734127
-0.00833525
-0.00844482
-0.00191308
-0.00487091
-0.00955803
-0.011109
-0.00826387
0.000864867
0.000660381
0.000698977
0.00160362
0.00173802
0.00114125
0.000586055
0.00068129
0.000421569
0.00180991
0.00124171
0.00146711
0.00111968
0.00101431
0.000841449
0.000526838
0.00277256
0.00294607
0.00331975
0.00320398
0.00299975
0.00231189
0.00200553
0.0031403
0.00322642
0.00503858
0.00446776
0.00437961
0.00382707
0.00469566
0.00280701
0.00378716
0.00319393
0.00522526
0.00433377
0.00410088
0.00486021
0.00165935
0.00111934
9.05167e-05
0.000103061
0.000289637
0.00112026
0.00173218
3.64815e-05
0.000203789
0.000186034
0.000234791
0.000306336
0.000745379
0.00131038
0.005082
0.00430806
0.00487213
0.00441028
0.00385479
0.00409738
0.00414615
0.00666002
0.00640342
0.0071818
0.0071059
0.00673628
0.00659762
0.00587581
0.00838508
0.00741436
0.00947937
0.00994489
0.00913013
0.00862445
0.0103371
0.00984599
0.00926202
0.0112742
0.0118964
0.0104786
0.00878788
0.010264
0.00825895
0.00774771
0.00687809
0.00877074
0.00785824
0.0086024
0.0081063
-7.05035e-05
9.33973e-05
-6.52398e-05
0.00126541
0.000714877
0.000423816
0.000581684
-2.6058e-05
-0.00135644
-0.000563866
0.000563105
0.0018505
-0.00138702
-0.00210023
-0.00167611
0.000291365
0.00186539
-0.000529335
0.000652789
0.00349851
0.00296312
0.00234107
-3.9049e-05
-2.19764e-05
-2.19039e-05
-4.9161e-05
-1.31739e-05
2.61842e-05
2.25387e-05
1.32299e-06
-1.07217e-05
0.000162023
5.16665e-05
1.89611e-05
-0.00383074
-0.00364813
-0.00368946
-0.00364834
0.000509925
0.00504701
0.00361953
-0.00121952
0.0012925
0.00827646
0.00601674
0.00543505
-0.00348444
0.00241021
0.00628877
0.00767452
0.00723071
-0.00625324
-0.00881305
-0.00687424
-0.00221515
-0.000681788
-0.000570351
-0.00103322
-0.000248137
-0.000354488
-3.61348e-05
0.000161424
0.000236836
-0.000341884
-0.00134142
0.000289144
0.00045338
0.000914593
-0.000347768
-0.00198363
0.00125745
0.00104631
0.00153561
-0.00267514
-0.00364476
-0.00215502
-0.000441464
0.000769164
-0.00210286
-0.00313738
-0.00281985
7.46924e-05
0.00258883
-0.000354589
-0.00328503
0.0026232
0.0019328
0.00301148
-0.000988562
-0.0052038
0.00334575
0.00256689
0.00336458
-0.00549317
-0.00757381
-0.00493962
-0.000880053
0.00161391
-0.0055397
-0.00764411
-0.00595405
-5.25754e-05
0.00526171
-0.00297675
-0.00885652
0.00191332
0.00365393
0.00377139
2.99251e-05
-3.73193e-05
0.000250001
0.000217964
0.00040303
-0.000140818
6.68707e-05
-0.000221008
-6.46199e-05
3.79204e-05
-1.90495e-05
-0.000197913
-0.000383753
0.000309675
0.000382629
0.00102578
-0.00026409
-0.000105765
-0.00125114
-3.34132e-06
0.00132738
1.66254e-05
0.000256694
0.000149067
-0.00784754
-0.00643665
-0.00239574
-0.00338479
0.00244017
-0.0029812
0.000200808
0.00399929
-0.000191441
-0.000222084
0.000862855
0.000170024
-0.000764713
-0.000149072
-0.000366163
0.000123785
0.00021461
0.000396967
0.000669176
0.000680167
0.000263162
0.000984814
-0.000360823
0.00112318
0.000330657
-0.000567616
-0.00131737
-0.00129865
-7.11195e-05
-0.00118214
0.000100453
0.000615748
0.000775899
0.00110344
0.00116828
-7.17705e-05
0.000764423
0.00235036
0.000234923
0.000345316
-0.000933865
0.000508294
-0.000682519
-5.29108e-05
0.000202301
0.000188553
0.000114001
2.27788e-05
-0.000126603
-0.00140767
-0.00158744
-0.00157619
-0.000219775
0.00190293
0.00113344
-0.000439147
0.00138887
-0.00184695
-0.00190043
-0.0018074
0.000638579
0.00274699
-0.00245181
0.0023631
0.000280537
-0.00251568
-0.00231618
0.00270253
0.000408645
0.00266119
0.00321447
0.00294572
0.000893818
0.00363463
0.00140077
0.00364408
0.000658957
0.00224628
0.00202098
-0.00221133
-0.00264761
-0.00055935
-0.00138989
-0.00181498
0.00013328
-0.00357625
-0.00158686
-0.0038325
0.00155653
-0.000409351
0.00152949
0.00177822
0.00171901
-2.46132e-05
-3.68624e-05
-0.00427967
-0.00411023
0.00409874
-0.00361546
0.000216767
0.00353139
0.00585061
0.00138267
-0.00301966
-0.00241462
-0.00785477
-0.00496026
-0.00793072
-0.00256941
0.00525708
-0.00317645
0.000958378
-0.00437317
-0.00352729
-0.0040863
-0.00388639
-0.000488709
0.00403512
-0.003982
0.00328631
-0.000348936
-0.00333137
-0.00338993
0.00368055
-0.000547435
0.00372472
-0.00161698
-0.0015021
0.00037369
0.000234878
0.00344956
0.00347751
-0.00290306
4.90919e-05
-0.00202751
0.00230189
-0.000212998
0.00249267
0.00527601
0.00435491
0.000620876
0.00302486
-0.00081067
0.00349033
0.00351259
-0.00089925
0.00346243
0.00650605
0.00182831
0.0071282
-0.00538186
-0.00603068
-0.0013441
-0.00351665
-0.00412428
0.000206465
-1.64213e-05
-7.55244e-05
-0.000148755
0.000104199
-3.10312e-05
-0.000234939
0.00754912
0.00304962
0.00798744
-0.000395702
-0.00069343
-3.53721e-05
8.39997e-05
0.000308464
-0.000252353
-0.000853846
0.000174234
0.000194294
-0.000137083
0.000224674
0.00262659
-0.00164598
-0.0021933
-0.00251156
0.00236936
0.00142813
-0.000164101
-0.000371962
-0.00521826
-9.36272e-05
0.000388733
3.98939e-05
0.00367637
0.00517891
-0.00390565
-4.80587e-05
-0.00602046
0.000814841
-9.53248e-05
0.00265562
-0.00484086
0.000692757
0.00626929
-0.00237279
-0.000878948
-6.21139e-05
-0.000576428
0.00461292

SCALARS S_yy double 1
LOOKUP_TABLE  table6
-9.66333e-06
0.000385858
0.000609554
2.12361e-05
6.77792e-05
0.000773924
0.00165738
-0.00143931
0.000668616
0.00248562
0.0017724
0.00119893
0.000616925
0.000262799
0.000773248
-0.000655915
-0.00103543
2.03587e-05
-8.58991e-05
-0.00143957
-0.0026425
-0.000786651
-0.000787287
-0.00174922
-0.000841438
-0.000775049
-0.00021829
1.20647e-05
0.000106284
0.000407913
0.000212375
-0.000131489
0.000195462
0.000662073
0.00046341
0.000902751
0.00125896
0.0011586
0.00122406
0.00102455
0.000905664
9.16535e-06
3.79e-06
8.3367e-05
0.000498414
0.00168567
0.00111014
0.00205212
0.0025272
0.0020895
0.000896685
0.00121511
0.00258973
-0.000127289
-0.000211343
0.000107983
-0.000301493
-0.000114996
-0.000666774
-0.000466893
-0.00102723
-0.0010599
-0.000862943
-0.00161345
-0.000208191
5.0458e-05
2.36754e-05
-0.000231465
-0.00102626
-0.000965852
-0.0014898
-0.0015204
-0.0023257
-0.00209046
-0.00279998
-0.00205414
-5.70846e-05
-0.00112094
-0.000113872
9.3458e-05
-0.000159517
-0.000262335
-0.000459142
1.38958e-05
1.34136e-05
-4.84001e-05
-0.000631663
-0.000132893
-0.00105209
-0.000302801
0.0011405
-0.00014063
7.75786e-05
0.000195247
0.000234738
0.000488996
0.000251065
0.0003035
0.000545075
0.000986669
0.00049623
0.000133563
-7.87685e-06
-1.85505e-05
4.22042e-05
-0.000157882
-4.71535e-05
4.2396e-05
-0.000182007
-2.57136e-05
1.14665e-05
0.000161636
0.000126194
-0.000323398
0.000160511
5.1029e-05
7.05791e-05
5.76505e-05
0.000230793
0.000114516
0.000342663
0.000509513
0.000364946
0.000291523
0.000421999
0.000318534
-2.34569e-06
-4.56987e-05
-4.73924e-05
0.000169862
-1.13148e-05
0.000162992
0.000347847
0.000419505
0.000379893
0.000755503
0.000489623
0.000545157
0.00083946
0.000698336
0.00097943
0.00124104
0.000868024
0.000837803
0.000900643
0.00101191
0.00114545
0.00135988
0.00122311
0.00110524
0.00109113
0.00122198
0.00134243
0.00140002
0.00130483
0.000843873
0.00127477
0.00108963
0.00129259
0.000929526
0.0008648
0.000135702
8.3087e-06
7.68342e-06
2.92131e-05
2.31801e-05
4.03653e-06
3.75749e-06
3.00072e-06
3.32875e-05
0.000358145
0.000890986
0.000459222
0.000232504
0.000235125
0.00101126
0.000946083
0.00188397
0.00121925
0.00132497
0.00190019
0.00141325
0.00226212
0.00237126
0.00210182
0.00199245
0.00198516
0.00217987
0.00239675
0.00206851
0.0014755
0.00226985
0.00223121
0.0018762
0.00273539
0.000727932
0.00185432
0.00241507
-0.000792248
0.000584496
0.00175213
0.000732558
0.00179453
0.000269221
0.000132213
0.000397034
-0.000400744
-0.000401231
-0.000218895
-4.73136e-05
-0.000128201
-5.83773e-05
-0.000463347
-0.000258685
-0.000313636
-0.000161051
-0.000206923
-0.000156882
-2.19993e-05
-0.000732497
-0.000578842
-0.000793902
-0.000579517
-0.000592469
-0.000418432
-0.000370687
-0.000860763
-0.000792015
-0.00117181
-0.00106565
-0.000953561
-0.000747033
-0.00120269
-0.000904927
-0.00122829
-0.00097005
-0.00166536
-0.00150452
-0.0012676
-0.00137232
-0.000580185
-0.000328408
-3.86989e-05
5.06423e-05
-2.36502e-05
-0.00020823
-0.000410094
3.38338e-05
4.53187e-05
-3.20608e-05
-0.000101437
-1.51257e-05
-0.000154644
-0.00055256
-0.00120323
-0.00113948
-0.00111334
-0.000939916
-0.000975069
-0.00107626
-0.000861585
-0.00166469
-0.00124208
-0.00176537
-0.00155277
-0.00148942
-0.00148389
-0.0012066
-0.00224312
-0.00187968
-0.00252153
-0.00231795
-0.00219704
-0.00173545
-0.0024442
-0.00258371
-0.00229084
-0.00303203
-0.00205772
-0.00260606
-0.00204431
-0.00230086
-0.00102869
-0.000926254
-0.000172222
-0.00152924
-0.000741944
-0.00147807
-0.0017561
-2.80125e-05
1.66406e-05
-2.69161e-05
-0.000401265
-9.69834e-05
0.000141224
0.0003967
-2.69751e-05
0.000165482
7.26284e-05
-0.000312522
-0.000559044
0.000142743
0.000310424
0.000361104
-0.000190376
-0.000651344
-7.34285e-05
-0.000338342
-0.000847744
-0.000773705
-0.000768509
1.45802e-05
1.87147e-05
1.57533e-05
1.60898e-05
1.31726e-05
2.19279e-05
4.52408e-06
-2.88399e-06
8.48523e-06
-8.05713e-05
1.01789e-05
3.40743e-05
0.000474166
0.000541878
0.000599554
0.000784494
-0.000406274
-0.00179511
-0.00100959
0.000180298
-0.000824958
-0.00217658
-0.00181965
-0.0018539
0.000862176
-0.000663725
-0.00125976
-0.00213971
-0.0020074
0.00194768
0.000717608
0.00174735
0.0010455
0.000421764
0.000125871
0.000320378
-7.16603e-05
-2.73329e-05
-3.5605e-05
8.27592e-05
8.04922e-05
0.000191806
0.000419058
2.19008e-05
3.34141e-05
-1.30392e-05
0.000213829
0.000582713
-0.000218057
-0.000196411
-0.000219691
0.000729325
0.000966785
0.000596374
0.000161293
-0.000100842
0.000661689
0.00122665
0.000805575
-1.13502e-05
-0.000368404
0.000349266
0.00110379
-0.000604635
-0.000470515
-0.000347486
0.000441972
0.00142726
-0.000722766
-0.000596792
-0.000508038
0.00155156
0.00197052
0.00137524
0.000331475
-0.000209566
0.00149214
0.00233146
0.00164529
0.000229081
-0.000936904
0.000996109
0.000490025
-0.000208563
-0.000463651
-0.000435948
-3.13939e-05
-1.48871e-05
0.000136426
-6.51217e-05
-5.58424e-06
-2.28012e-05
3.54092e-05
-0.000135816
3.12915e-05
1.12613e-05
1.26199e-05
3.7052e-05
1.49992e-06
-0.000293344
-0.000144043
-0.000468577
0.000231781
0.000134688
0.000544271
3.24637e-05
-0.000425842
-8.55098e-06
-0.000163866
-0.000130262
0.00104492
-0.000615845
-0.000169475
0.000559814
-0.000287855
0.000206642
0.000310408
-0.000587212
-6.2764e-06
2.40919e-05
-0.000141548
1.24123e-05
0.000188568
1.07327e-05
7.43194e-05
2.60979e-05
-6.42077e-05
-5.93994e-05
-0.00014107
-0.000122362
-5.38633e-05
-0.00019984
9.40666e-05
-0.000182772
-3.3868e-05
0.000143696
0.000290512
0.000323277
5.1784e-05
0.000276592
-5.16775e-05
-0.000124671
-0.00021116
-0.000220435
-0.00027969
-1.03793e-05
-0.000124012
-0.000785663
-2.00445e-06
-0.000123881
0.000214129
-0.000145705
0.000111664
4.05362e-05
-7.46401e-05
-6.36987e-05
1.19595e-06
3.99505e-05
5.46293e-05
0.000334052
0.000258299
0.000314964
5.0738e-05
-0.000415874
-0.000247879
7.34723e-05
-0.000298526
0.000630499
0.000696502
0.000760201
4.11536e-05
-0.000529055
0.000932468
-0.000505208
8.47941e-05
0.000859736
0.000635548
-0.00065462
9.58285e-06
-0.00056372
-0.000699025
-0.000649434
-0.000185601
-0.00098288
-0.000293728
-0.0011275
-0.000311762
-0.000757105
-0.000683135
0.000566337
0.000698798
0.000250305
0.000246282
0.000348876
-1.02206e-05
0.000920306
0.000408276
0.000978223
-0.000521192
3.14178e-06
-0.000365544
-0.00042983
-0.000437331
-5.93069e-05
4.11837e-06
3.08341e-05
0.000853058
-0.000537019
0.0007657
0.000198293
8.61322e-06
-0.000990347
-0.000391366
0.000246192
0.000349851
0.00187416
0.00125839
0.00197046
0.000741114
-0.00111907
0.000774427
5.0666e-05
0.00131029
0.000780386
0.00053388
0.000658908
8.26437e-05
-0.000962914
0.000890229
-0.000619026
0.000143678
0.000671549
0.000523152
-0.000917036
2.63655e-05
-0.000956435
0.000411027
0.000429619
-0.000221336
-3.47847e-06
-0.000601502
-0.000669761
0.000839688
0.000214193
0.000826496
-0.000488663
7.67141e-05
-0.000716489
-0.00111096
-0.000928517
-0.000116023
-0.000821249
0.000118381
-0.000805357
-0.00124313
3.71761e-05
-0.000899385
-0.00149337
-0.000403916
-0.00149674
0.0013861
0.00165871
0.000561121
0.000661613
0.000843391
-4.49982e-05
3.08832e-05
1.59546e-05
1.94255e-05
-4.61341e-05
-4.39261e-05
-2.48478e-05
-0.00134748
-0.000469705
-0.00167916
0.000120071
0.000161977
-3.44374e-05
-1.02212e-05
7.17788e-06
-2.90026e-05
0.000177732
-3.47159e-05
3.95324e-05
3.61923e-05
-8.75448e-05
-0.000803198
0.000343235
0.000550045
0.000750254
-0.000534537
-0.000327151
2.46048e-05
0.000186134
0.0012665
2.52957e-05
-1.19959e-05
-0.000338935
-0.00076274
-0.00126737
0.000825373
1.11843e-05
0.00125751
-0.000290314
3.94121e-06
-0.000690272
0.00124486
-0.000134091
-0.00154973
0.000683304
0.00024756
-4.08685e-05
9.5685e-05
-0.000488208

SCALARS S_zz double 1
LOOKUP_TABLE  table7
0.000245492
0.000846532
0.000821069
-7.18234e-06
-1.67542e-05
0.0023937
0.00240145
0.00110912
0.000682218
0.00323158
0.00130267
0.00147715
0.000465047
-0.000347629
-0.00258662
-0.000627903
-0.00150635
-2.55644e-05
-0.000219058
-0.0010528
-0.0036709
-0.00234067
-0.000434348
-0.00260863
-0.00153488
-0.00129163
-0.000445881
-0.000880332
0.000210333
0.000605695
0.000210075
0.000349465
0.000204898
0.000944726
0.000778186
0.000956842
0.00170643
0.00109025
0.000744967
0.00174852
0.000713874
0.000142379
1.77644e-05
1.33498e-05
7.5716e-05
0.00220733
0.00193418
0.00205474
0.00391146
0.0023934
0.00171185
0.000456516
0.00280809
-0.000341642
-0.000402967
-0.000490469
-0.000420249
-0.000393315
-0.00080074
-0.000742232
-0.000906793
-0.00167665
-0.000747339
-0.00147079
-5.78904e-05
-0.00021887
-4.47038e-05
-0.000181962
-0.00138283
-0.00141998
-0.00157224
-0.00181157
-0.00200642
-0.00373311
-0.002909
-0.00328015
-0.00197488
-0.00261364
-0.000157529
-0.000539537
0.000167186
0.000354467
-0.000508931
-5.01469e-05
-1.82489e-05
-4.15681e-05
0.000867141
0.000388579
-0.00115793
-0.000643864
0.000675778
0.000522763
-9.83783e-05
-2.35233e-05
0.000192429
0.000809846
-0.000597196
-0.000224456
0.000483566
0.00136458
-0.000461677
-0.000383363
-8.75777e-05
1.50637e-05
6.74341e-05
-0.000249102
-0.000199142
2.93101e-05
-0.000189778
7.63668e-05
0.000101052
-0.000534247
-7.31109e-05
-0.00140198
-9.16464e-05
0.000262823
9.70192e-05
0.000112798
0.00026983
5.1014e-05
0.00029694
0.000535471
0.000429976
0.000460459
0.00063805
0.000475305
5.8742e-05
0.000232192
0.000428552
3.11406e-05
0.000314806
0.000276205
0.000334291
0.000683183
0.000755756
0.000738367
0.000806193
0.000879252
0.00125428
0.000890021
0.00146934
0.00202268
0.000698461
0.000957801
0.0013568
0.00130434
0.00150219
0.00147163
0.000751478
0.00130736
0.00137207
0.00103048
0.000858125
0.000915772
0.000782894
0.000518498
0.00151156
0.00123797
0.00133658
0.00195572
0.00134322
0.000265392
0.000103911
0.000127393
2.13834e-05
6.26002e-06
3.60306e-05
3.04933e-05
1.04269e-05
-2.90733e-07
0.000414169
0.00089071
0.000386529
7.6644e-05
-2.3019e-05
0.00177028
0.00208365
0.00189257
0.00215026
0.00207801
0.00284018
0.00210075
0.00320472
0.00440147
0.0017556
0.00213881
0.00281944
0.00285779
0.00349003
0.00330074
0.00199798
0.00282583
0.00306653
0.0020297
0.00183451
0.00137756
0.00230733
0.00232021
0.00052741
0.00140414
0.00179629
0.000461684
0.00217919
-0.000998433
-0.000569216
-0.00129199
-0.000416383
-0.000480771
-0.00041545
-0.000329799
-0.000502303
-0.000511656
-0.000537434
-0.000463882
-0.000310284
-0.000403983
-0.000328603
-0.00037929
-0.000452236
-0.000648417
-0.000732889
-0.00114515
-0.000774224
-0.000849659
-0.000613404
-0.000526598
-0.000748512
-0.000855134
-0.00128338
-0.00153091
-0.00133629
-0.00136026
-0.00190365
-0.000896149
-0.00111725
-0.000797097
-0.00137982
-0.00119646
-0.00128693
-0.00168326
-0.000515563
-0.000375435
-1.04986e-05
-5.25753e-05
-0.00012225
-0.000385538
-0.000576322
-2.94719e-05
-0.000113948
-0.000155548
-0.000158825
-0.000119888
-0.000244542
-0.000293284
-0.00157727
-0.00157684
-0.00101955
-0.00126523
-0.00117681
-0.00146447
-0.0015651
-0.00126361
-0.00149726
-0.00216784
-0.0017049
-0.0016927
-0.0014282
-0.00154459
-0.00188198
-0.00190433
-0.00277847
-0.00360349
-0.00284476
-0.00295776
-0.00412138
-0.00308582
-0.00301148
-0.00311695
-0.00388616
-0.00329116
-0.00302325
-0.00369128
-0.00270236
-0.00312872
-0.000846464
-0.00155644
-0.00253797
-0.00328351
-0.00301212
0.000120393
-0.000170726
0.000270053
-0.000386735
-0.000332188
-0.00068427
-0.00161496
-9.18759e-05
0.000725549
0.000131955
-0.000160487
-0.000493403
0.000703693
0.00066425
0.000641055
0.000183049
-0.000383207
6.30673e-05
6.1379e-06
-0.00113311
-0.000751563
-0.000493736
3.14019e-06
-8.14448e-06
-2.40025e-05
-4.08577e-06
-1.74105e-05
-7.80816e-05
-4.89824e-05
8.18912e-06
-1.48979e-05
-0.000136119
-5.77518e-05
-6.63185e-05
0.00169258
0.00162197
0.00140039
0.00148452
0.000531916
-0.000769994
-0.000772915
0.000345104
0.000115592
-0.00290252
-0.00160852
-0.00115326
0.000891401
-0.000932019
-0.00169657
-0.00239901
-0.00247422
0.00185173
0.00159359
0.00203469
0.000275241
-0.000508843
0.000167245
0.000186908
0.000489446
0.000390953
0.000166869
-0.000478935
-0.000410798
-6.84326e-05
0.000266339
-0.000264899
-0.00031184
-0.000472252
2.21077e-06
0.000469026
-0.000391491
-0.000301986
-0.000405731
0.00102734
0.00132481
0.000596143
0.000192694
-0.000295686
0.000489888
0.000314849
0.00100149
3.10057e-06
-0.00104655
-0.000306701
0.000732866
-0.00110526
-0.000994249
-0.00143287
6.63582e-05
0.00129808
-0.000986815
-0.000683001
-0.000931875
0.00196037
0.00275736
0.00138704
0.000336799
-0.00064702
0.00117727
0.00090738
0.00220665
0.000128371
-0.00183795
8.29588e-05
0.000774144
-0.00137511
-0.00140562
-0.000510981
-2.81587e-05
0.000157239
-0.000696141
-0.000304829
-0.000535143
0.000205967
-3.44674e-06
0.000592267
2.48922e-05
-3.86369e-05
-1.12668e-05
5.29014e-05
0.000249719
-0.000199525
-0.000138412
-0.000369656
0.000127636
1.47543e-05
0.000567272
0.000188998
-0.000259057
-1.78738e-05
-2.37926e-05
-4.05892e-05
0.00112094
0.000768896
0.000921226
0.000306933
-0.000313951
-0.000190798
-0.000740915
-0.000450369
7.62431e-05
1.2523e-05
-0.000409215
-0.000232152
0.000139576
4.63266e-05
5.33341e-05
-0.000150158
-0.000105736
-0.000283394
-0.000345908
-0.000365063
-0.000126187
-0.000335323
-6.27115e-06
-0.000387737
-0.000247218
0.000126907
0.000523036
0.000347245
-5.80848e-05
0.000366621
-0.000130873
-0.000268628
-0.000305947
-0.000237473
-0.000271829
0.000150116
-0.000307262
-0.000706557
-0.000139099
-0.000125731
0.000334113
-7.84357e-05
0.000490018
0.000118497
-1.74756e-05
-0.000109057
-1.68899e-05
-2.60186e-06
0.000105779
0.000374768
0.000633432
0.000474413
9.07232e-05
-0.000596176
-0.00029846
0.000236306
-0.000328859
0.000278839
0.000279519
0.000122615
-0.000700451
-0.00121922
0.000302987
-0.000956953
-0.000343182
0.000625961
0.000734308
-0.00115354
-0.000402726
-0.00117488
-0.00152927
-0.0011208
-0.000540754
-0.00132043
-0.000639747
-0.00112142
-0.000302898
-0.000685682
-0.000705201
0.00068056
0.000976442
0.000235659
0.000503687
0.000469178
-0.000132985
0.00155401
0.0008071
0.00144203
-0.000223225
8.37332e-05
-0.000523374
-0.000413699
-0.00046435
0.000190081
-8.21887e-05
0.00123786
0.000980033
-0.00194617
0.000520306
-0.000855202
-0.00171598
-0.00112829
-0.000922272
0.000342148
0.000173863
0.00326816
0.00174957
0.00300327
0.00135127
-0.00196692
0.00105202
-0.000391124
0.000648268
0.0010113
0.00154786
0.0012907
0.000236824
-0.00119022
0.00106967
-0.00118666
-1.15134e-05
0.00109799
0.00143006
-0.00103984
0.000275693
-0.000965658
0.000564975
0.000349659
-9.09852e-05
0.000243532
-0.000894468
-0.000984244
0.000793081
-0.000454432
0.00024088
-0.00102639
-0.00016539
-0.00112511
-0.00228314
-0.00182367
-0.000846257
-0.000638365
0.000514469
-0.000438325
-0.00038884
0.000283039
-0.000955665
-0.00252915
-0.00101121
-0.00330289
0.00166917
0.00210937
0.0004942
0.00126456
0.00115087
-0.000197326
-4.92038e-05
-1.27088e-05
3.29462e-05
-4.57611e-05
3.82995e-05
0.000147986
-0.00285004
-0.0014585
-0.00264068
0.000155971
0.000212388
1.468e-05
-0.000153985
-0.000282205
0.000211664
0.000207212
-9.3147e-05
-8.35942e-05
-3.38333e-05
-0.00038191
-0.000879135
0.00047907
0.000935848
0.000954247
-0.000670076
-0.000332798
0.000111363
-0.000614018
0.00207178
-6.61296e-05
-0.000330873
-0.000791062
-0.000855551
-0.00145477
0.00118823
1.15874e-05
0.00137113
-0.000319465
2.77902e-05
-0.00122021
0.00194083
-0.000341522
-0.0022035
0.000473879
0.000343059
5.72409e-05
0.000425724
-0.00253769

SCALARS S_xy double 1
LOOKUP_TABLE  table8
-8.08299e-05
-0.000495294
-0.00116631
1.17865e-05
-6.32156e-05
0.0012224
0.000379436
0.00915224
0.00611294
-0.00043327
-0.000503801
-0.000291122
-0.000182706
-0.000138293
-0.00181651
-0.000300222
0.00237156
3.71855e-06
1.70228e-05
-0.00266846
-0.00113087
0.00132046
0.00123632
2.09601e-05
0.000917656
0.000378675
0.000439951
-1.25542e-05
-0.000112178
-0.000318567
-8.26703e-05
-0.000270548
-0.000392787
-9.77506e-05
-0.000618372
0.000335492
-0.000521985
-0.00101578
-0.000473018
-0.000725384
0.000827114
-0.000117432
-4.92902e-05
-0.000216396
0.000349366
0.000289195
-0.00054132
0.000849851
-0.000512269
-0.00109212
-0.000149053
-0.00787978
0.00241226
-0.000598098
-0.000166155
-0.000217165
0.00023287
0.000200251
0.000234056
0.00028384
4.40207e-05
-0.000238244
0.000663406
-0.000120048
0.000382592
-1.58815e-05
8.63251e-06
-0.000313883
0.00115431
0.000663756
0.000178222
-0.00023495
-0.000614622
-0.000597343
0.00022291
-0.000396591
0.00111489
0.000924657
-2.41881e-05
0.000154574
-6.70888e-05
-0.000169397
0.000561341
-3.6882e-05
2.12761e-05
-7.85465e-06
-0.000696165
-0.000279974
0.000368562
0.000852055
-0.000515653
-1.22099e-05
0.000177844
0.000225311
-0.000199424
-0.000204859
8.18054e-06
4.48276e-05
-0.000505511
-0.000316088
0.000712422
0.00121813
1.05594e-05
-3.57388e-05
-7.73178e-05
5.54774e-05
0.0001979
9.13665e-05
-0.000122701
-6.65765e-05
-0.000300337
0.000880778
-5.62377e-05
0.000696282
-0.000228539
-0.000446124
0.000356241
-4.84332e-05
-0.000117972
1.70046e-05
-0.000187055
-0.000226518
-0.000241477
-0.000254662
-0.00034012
-0.000107793
-8.35651e-05
-0.000162062
-0.000438915
-0.000425013
-0.000313555
-0.000251956
-0.000302179
-0.000335374
-0.000565264
-7.07718e-05
-0.000371382
-0.0002244
-0.000140411
-0.000665914
0.000321825
-0.000741601
0.000145271
0.000138496
7.60075e-05
-5.21679e-05
-0.000365072
-0.00125414
-0.0003816
-0.000519862
-0.000952142
-0.00128803
-0.00142773
-0.000491848
-1.98691e-05
-0.000199257
-0.000836397
-0.000737432
0.000123493
0.000158656
0.00183681
-0.000819388
-0.000240822
-0.00122543
-2.61507e-05
-2.47847e-05
-5.26459e-05
-3.47511e-05
9.6028e-06
-1.11348e-05
0.000164484
0.0030622
0.00091473
0.000231264
4.36558e-06
-0.000124462
-0.000163094
-0.000203557
-0.000650129
0.000355579
0.00127234
-0.000126137
0.00118712
0.000261322
0.000284008
0.000426123
0.00025601
0.000202677
-0.000543925
-0.00125805
0.000734557
-0.000839332
-0.00151093
-0.0014294
0.000132434
0.00231234
-0.000182511
0.00149987
0.00422549
-0.00394728
-0.00235019
-0.00132363
0.00466738
-0.000961722
-0.000513463
-0.000802237
-0.000299674
-0.000256188
-0.000369795
-0.00013384
-0.000131975
-2.19562e-05
0.000193396
5.82211e-05
0.000206805
0.000459622
8.40542e-05
-7.35035e-05
7.4473e-05
-0.00015661
0.00035984
0.00021871
0.000388736
0.00049385
0.000308877
0.000306812
-0.000244692
0.000201078
0.000536592
0.00033829
0.000397307
0.000497868
0.000222838
0.00198417
3.29363e-05
-0.000425783
-0.000895689
-0.000463063
-0.000321703
3.69673e-05
0.00239653
0.000940128
8.32616e-05
0.000100699
0.000169696
0.000109059
-0.00101321
1.82651e-05
1.36935e-05
3.47242e-05
1.64193e-05
-1.47947e-05
-0.000461863
-0.00147289
-0.000293828
0.000555949
0.000863577
0.00119785
0.000743694
0.000399652
0.000844476
-0.00130006
0.000673387
-0.000354463
-0.000134699
3.87533e-05
0.000766341
0.000381932
-0.000904043
-6.19968e-05
-0.000963532
-0.000856229
-0.000281073
0.000687147
-0.000282779
5.24412e-06
-0.000547443
0.00158766
0.00126272
0.000404855
-0.000810676
-0.0013605
0.00420483
0.00165266
-0.00239871
0.00159004
-0.00158435
-0.000989585
0.00074585
-9.01933e-05
0.000122295
1.89862e-06
-6.89898e-05
-0.000220101
-0.00019302
-0.000629518
5.66031e-05
-0.000430137
5.96491e-05
-3.31688e-06
-6.8865e-05
-0.000665505
-0.000362821
-0.000405962
-8.33297e-05
-0.000533799
-0.000242865
0.000406061
0.00143621
0.000463109
-5.08646e-05
-5.07513e-07
3.48026e-05
-1.66537e-05
-1.44636e-05
-2.76555e-05
-4.65519e-05
-1.74723e-05
-3.9387e-05
1.937e-05
7.25009e-06
1.7212e-05
-1.96795e-05
-0.00130966
0.000758721
0.00048909
-0.000255792
-0.000501681
-0.00206321
-0.00173238
0.000696424
0.000573081
-0.000273996
-0.00013044
-0.000727015
-7.38881e-05
0.000525072
0.00136293
0.000872751
4.92677e-05
0.00118637
0.00141508
0.00010747
0.000180334
-0.000797185
-0.000113274
-2.68231e-05
-0.000282645
-0.000212329
0.000100294
0.00013548
0.000106611
0.000176424
-7.33944e-05
0.000182155
0.00041517
0.000564089
-0.000119423
-0.00012861
0.000321511
-0.000107317
-8.56681e-05
0.000190173
-0.000220353
6.61663e-05
0.000111531
-0.000160126
-0.000669503
-0.000249171
-0.000665958
-0.000754318
0.000238924
-2.05439e-05
8.03089e-06
0.000545684
0.000101295
0.000995616
-0.000677195
-0.000460903
0.000334372
-0.00053204
-0.000347634
0.000445562
-0.00016604
0.000161707
0.000143842
-0.000388359
-0.000732834
0.00251461
-0.000875467
-0.000473275
0.00051308
0.00175112
0.00218844
0.000388596
0.00207923
0.000215174
7.92503e-05
-4.77779e-05
-2.67852e-05
0.000125945
-4.80089e-05
-8.17886e-05
8.72254e-05
-0.000175521
9.81106e-06
1.68443e-05
1.5081e-06
-0.000331989
-0.000781589
7.66137e-05
0.000242975
0.00104345
0.000133179
-4.93489e-05
0.00137919
-0.000159349
-0.00145188
-0.000110087
-0.000272831
2.34754e-05
-0.00537813
0.00394151
-0.000484536
-0.00256869
0.0005355
0.000272186
-4.68945e-06
0.00271102
4.35118e-05
-3.27119e-05
0.00040272
0.000217928
-2.61668e-05
-6.46213e-05
-4.00208e-05
5.15818e-05
7.3953e-05
2.51572e-05
0.000191656
-0.000103677
1.77548e-05
-0.000176005
7.58482e-05
0.000286578
0.000217075
5.73473e-05
-0.000156539
-0.000210378
8.14486e-05
-6.21104e-05
0.000100907
0.000162716
0.000117256
0.000134161
0.000216668
-3.99425e-05
-0.000271955
-0.000995026
6.15487e-05
-3.54447e-05
-0.000398103
-0.000449805
-0.000568021
-0.000152211
-4.39972e-05
1.0045e-05
5.0639e-06
-1.33696e-05
-0.000106585
-0.000189675
-0.000524137
-0.000327098
-0.00021634
1.13576e-05
-1.44069e-06
-0.000242777
-2.08285e-06
-0.000251347
0.000358637
0.000346965
0.000454347
0.00100174
-0.000526305
9.17385e-06
-0.000365066
-0.000585582
-0.000369613
0.000255263
0.000435617
0.000812497
0.000124396
0.000287456
0.0002471
-0.00031938
-0.000464962
-0.000397731
7.86476e-05
0.000204905
0.000781976
-0.000170706
-4.49055e-05
-5.70896e-05
-0.000352814
-0.000348822
4.36727e-05
-0.000517969
-0.000372331
-0.000345787
0.000138438
0.000121414
0.000372183
0.000188392
0.000203338
-1.9475e-05
0.000325012
3.77784e-05
0.000183345
0.00192373
0.00151233
0.000967125
-0.000884487
0.000847114
0.00031353
0.00117842
0.000365723
-0.00084323
0.000345226
-0.00057397
-0.000470423
-0.000332692
-0.000978465
-0.000372174
0.000362328
-0.000458415
0.000103656
-0.000256763
-0.000370599
-0.000530938
-0.000873622
0.000758611
-0.000171419
-0.000286321
0.000246655
-4.91634e-05
-0.000107943
-0.000321462
0.000913678
0.000444739
-4.20802e-05
0.000444474
0.000243371
0.000882907
0.000474371
0.000697821
0.000400382
0.000651243
0.000291249
0.000127275
-0.000368352
6.68928e-06
0.000310496
-0.000143285
0.000308536
-0.000173326
-0.000243988
0.00060873
0.000661463
9.37845e-06
0.000634304
5.46595e-05
-0.000114402
0.000468339
-2.80627e-05
-7.09079e-05
-0.000230382
9.65686e-05
-3.29159e-05
-3.8321e-05
-0.000230551
3.21766e-06
1.58416e-05
-0.000103885
-0.00170527
-0.000726573
0.000464488
0.00012205
-0.000103745
-0.000242885
4.98002e-05
1.71011e-05
-0.000117118
-8.08511e-05
0.000180888
-3.74561e-05
-0.000112491
-0.000535577
-4.12908e-05
-0.000136471
3.83308e-05
-0.000676373
0.000700892
0.000111692
7.55327e-05
0.000650931
-0.00156194
-0.000261952
0.000545961
0.000301971
0.000445746
0.00107668
0.000114333
3.76445e-05
-0.00221291
0.000372024
-4.54715e-05
0.000159751
0.000160823
7.70225e-05
-0.000175051
-0.000202714
0.000409343
4.44629e-06
0.000301322
-0.000400154

SCALARS S_yz double 1
LOOKUP_TABLE  table9
0.000586828
-0.00017453
-0.000148704
-2.84758e-05
-9.86939e-05
-0.000816877
0.000348758
-0.000330191
-1.76041e-05
-0.000533785
-0.000135018
-0.000112577
-0.000128758
-9.00948e-05
0.00246567
2.68693e-05
-0.000691652
2.49523e-05
-0.000124182
-0.000141733
0.0018308
-0.000105696
-0.00122164
-0.000222656
-0.000541906
-0.000131285
-0.00022524
-0.000339685
-0.00018637
-2.02369e-05
-8.85979e-05
-0.000700611
-0.000256418
1.55992e-06
0.000289815
-0.000125786
-0.000705019
-9.61837e-06
-5.00908e-05
-5.52327e-05
0.000204326
0.000159073
4.07143e-05
-0.000265068
-0.000767148
6.94584e-05
0.000811615
-0.00027213
-0.00127412
-0.000855405
-0.00044359
-0.000512641
0.00125825
0.000168096
-6.8603e-05
0.000214946
-0.000113141
1.6464e-05
0.000217634
-0.000132635
0.000217092
0.000724255
0.000150077
0.000256342
-0.000555482
0.000213926
0.000184016
-5.57614e-05
-2.81076e-05
0.000202975
0.000370495
-0.000153637
0.000808481
0.00146724
0.000516246
6.9557e-06
-0.000394932
0.000745398
5.87906e-06
0.000960571
-0.000304991
9.21696e-06
-0.000338867
6.88013e-05
-4.58077e-05
-6.23928e-05
0.000627919
-0.000586563
0.00190446
0.000376337
4.5565e-05
-0.000257246
-0.000171169
-0.000331113
-0.000302573
-0.000979436
-0.000201488
-9.07682e-05
-0.000482646
-0.0020474
-0.000473008
0.000229778
-0.000192968
-0.000201243
-0.000309626
-0.000697049
-5.5036e-05
-0.000241871
0.000432099
0.000467329
0.000138195
-4.17339e-05
-5.75278e-05
-7.7247e-05
0.000130824
0.000624356
-0.000287696
0.000105099
-8.7019e-05
4.57912e-05
-0.000164834
3.86943e-05
-5.80494e-05
-8.69392e-05
-5.37719e-05
-0.000165241
0.000176183
-0.000224357
-0.00061156
-0.000285576
-0.000447473
-0.000226123
-0.00027357
9.73726e-05
0.000108219
-7.35423e-05
3.24672e-05
0.000149576
-0.000147263
0.000209511
-0.000369813
-0.000986994
-0.000163317
-8.39631e-05
-0.000320214
-4.26943e-05
-0.000136712
-0.000428604
5.52197e-05
-2.35558e-05
-0.000233089
-1.59517e-05
-0.000212762
-0.000122048
8.43051e-05
0.000283024
0.000465236
-2.82494e-05
-0.000264066
-0.000191142
-0.000542976
-1.3135e-05
-6.59542e-05
-0.000830387
-6.09002e-05
6.01681e-05
8.92709e-05
-9.86202e-07
-4.11454e-06
-5.90556e-05
0.00018215
-0.00174743
-0.000267053
-0.000194846
-0.000351242
0.000379589
0.000429232
-7.1767e-05
9.96292e-05
0.000525664
-7.11761e-05
0.000842522
-0.000611564
-0.00196068
-0.000320327
-8.23659e-05
-0.000495262
-0.000375353
-0.000495822
-0.00161559
-0.000189103
-0.000509567
-0.000708145
-0.000732433
-0.000726047
-0.000497573
0.000459733
0.00119578
-0.00169952
-0.000685914
0.000430023
0.000625564
0.00180347
0.00101562
0.000320254
0.00124275
-3.51717e-05
-0.000143784
-6.18533e-05
-0.000150558
-0.000105946
-0.000558085
-0.000132953
1.24131e-05
-0.000115931
-2.84544e-06
-1.79147e-05
-1.72388e-05
-0.000159161
0.00016458
-3.77149e-06
0.000351331
-0.000189745
3.30904e-05
-4.56327e-05
-9.03355e-05
0.000253528
5.671e-05
0.000497438
0.000597735
0.000360529
0.000344579
0.000897583
-0.00062763
0.000443055
-0.000101797
-0.000188909
1.56704e-05
0.000421785
0.000566104
-0.0016397
-0.000302551
-9.35543e-05
0.00010436
-5.27478e-05
0.000127406
2.76395e-05
0.000101603
0.000233289
5.7791e-05
-4.40375e-05
0.000312819
0.000322717
-0.000124073
-0.000262449
0.000302552
-0.000158361
4.96468e-05
0.00046807
0.000376316
0.000326822
0.000247702
-0.000162678
0.000397389
-0.000509649
-0.000187293
-8.40662e-06
-0.000245435
0.00107478
0.000503953
0.00127889
0.00143217
0.00113186
0.000973818
0.00184672
0.00112309
0.000591131
0.000149783
0.000153733
4.38714e-05
0.000445224
0.000817504
-0.000491138
-0.000129426
1.35707e-05
2.06739e-05
0.000497322
0.000452738
0.000846778
0.00032172
0.000456888
0.000960469
-0.000142169
0.000113013
0.00066888
0.00177567
-4.66108e-05
-0.000228788
-0.000176993
-0.000280919
-9.69009e-05
-5.76801e-05
6.95355e-05
-0.000244853
-0.000203846
0.000129736
-0.000104656
9.39799e-05
-0.00044452
8.96841e-05
0.000200838
1.54346e-05
-2.44978e-05
3.11852e-05
5.88064e-05
4.27653e-05
3.81882e-05
-4.61716e-06
-7.09869e-05
8.79283e-05
-9.53886e-05
0.000113405
6.6178e-05
-6.38882e-05
-0.000678704
0.000986276
-1.69206e-05
-0.000183574
0.000619108
-0.000174677
0.00193569
0.00121302
0.00146385
0.000849609
0.000823953
0.000561726
0.0009479
-4.11811e-06
6.78552e-05
0.000885674
0.00106657
0.000412192
0.000372235
0.000693124
0.000509661
-0.000213567
-0.000150441
-0.000478474
-0.000338733
-0.000326849
-0.000165706
-0.000208051
-8.08916e-05
-0.000114146
-9.76409e-05
-6.59117e-05
-0.000222826
-0.000318962
-0.000130536
-0.000368006
-0.000321741
-0.000432677
-0.000415387
-0.00028741
-0.000279373
-0.000538899
-0.00109449
-0.000182963
-0.000249907
-0.000480715
-0.000889126
-0.000669577
-4.86141e-05
0.0001517
8.14886e-05
5.10842e-05
-0.000133811
-0.000219093
-2.42722e-05
-0.000619058
-0.000605657
-0.000866395
-0.000876818
-0.000988914
-0.000522154
-0.00109756
-0.00213185
-0.000794257
4.68219e-05
-0.00159954
-0.00158888
-0.000802065
0.000689419
0.000655472
0.000700039
0.000773423
0.00037718
0.000552965
0.000304759
0.000747216
-6.75863e-05
-0.000287535
-0.000387985
-0.000371794
-0.000688105
-6.9072e-05
-4.80288e-06
-9.02323e-05
-0.000361895
-0.000411319
-0.000858124
-0.000380266
-0.00100476
-0.000436004
-0.000317818
-0.000771891
-9.61808e-05
-9.16972e-05
-0.000276271
-0.000122528
-0.000117896
-0.000548699
-0.000546803
-0.00107647
-0.000395702
-0.00041191
6.32302e-06
9.88799e-05
-0.000727791
0.000144107
-0.000139091
-0.000120607
-0.00012649
-0.000140514
-0.000144669
-0.000176571
-0.000273119
-8.77857e-05
-0.000196399
-4.17705e-05
-0.000170089
0.000112643
-8.4273e-05
-5.11455e-05
-0.000212473
-9.56316e-05
-0.000119245
-0.000236048
-0.000102898
-0.000236305
-9.91381e-05
2.89351e-05
-0.000101863
-8.40067e-05
-0.000211253
-0.000274064
-0.000391836
0.000318148
2.05206e-05
3.8326e-05
8.87666e-05
0.000205167
0.000385476
0.000436
0.000523029
0.000248035
9.22316e-05
0.000301225
0.000197706
0.00031094
-4.48047e-05
6.58235e-05
0.000105647
-3.19007e-05
-9.76597e-06
-0.000328351
-0.000310435
-0.000259372
9.53285e-05
0.000269197
0.00021886
6.80101e-05
-0.000280125
-5.45595e-05
-0.000103237
-0.000192293
-0.000197999
-5.17745e-05
0.000112591
-3.48175e-05
5.53233e-05
0.000786765
0.00031005
0.000518688
0.000291252
0.000315873
-2.97501e-05
-0.000111576
0.000239256
-0.000111817
-0.000121237
-0.000257526
-0.000349019
0.000297441
0.000301663
0.00020687
-0.00088303
-0.000837611
-0.000570171
5.79744e-05
0.000211514
0.000303172
1.94094e-05
0.000232884
6.62752e-05
9.15158e-05
-5.12077e-05
0.000375074
-0.000798865
-8.10987e-05
-0.000426992
-1.89351e-05
-7.37185e-05
0.00043641
0.000136076
-0.000153577
-0.00155141
0.000122944
-0.00125316
-0.00171714
-6.21246e-05
-0.000691202
-0.000523165
-0.000273687
0.000187633
0.000372908
0.000472792
0.000243617
3.22743e-05
0.000287371
-0.000204199
-6.16247e-05
-6.30799e-05
-0.000403126
-0.000335699
-0.00024805
-0.000251913
5.83508e-05
0.0004975
0.000231959
-0.000729827
-0.000576452
-0.000342568
-9.20344e-05
-0.000120144
0.000252687
-0.000314689
1.744e-05
-0.000217437
0.000680312
0.000509955
-2.91918e-06
0.000206595
0.000163601
-0.000222885
0.000558258
0.00117079
0.000952983
0.00115367
0.00196999
0.00175217
-0.000134483
-0.000263887
-0.000537122
0.000849174
0.00100662
0.000717737
4.54442e-05
9.34013e-05
1.83103e-06
0.00014947
5.83101e-05
0.000376881
0.000162007
0.000423532
-0.000289631
3.80049e-05
0.000456894
0.000298581
-0.000103406
0.000211622
-0.000423572
-7.84924e-05
-0.000152718
0.00044833
-0.000268131
-7.50335e-05
0.000283109
0.000140859
-0.000380559
-0.000347049
0.00017007
-0.000298766
0.000143375
-0.000193384
-0.00112656
-0.000253083
-7.75293e-05
0.000510767
-0.000427172
0.00107762
0.000598667
0.000226556
-4.94011e-05
-0.000153175
6.12049e-05
0.000112257
-0.000694431
-9.10036e-05
0.000291329
0.000273888
0.000200647
0.000215947
0.000470723
-0.000276011

SCALARS S_xz double 1
LOOKUP_TABLE  table10
-0.00173358
-0.00124855
-0.00117529
-4.50503e-05
6.87272e-05
-0.000519739
-0.00136197
0.00405538
-0.0029823
-0.000725287
-0.00215846
-0.00047096
-0.00122362
-0.00108256
-0.00334946
-0.000801012
-0.00120477
-3.98511e-05
1.93724e-05
0.000777843
-0.000683664
-0.00540918
-0.00814213
-0.000442228
-0.0013356
-0.000435564
-0.000935006
-0.00140395
-0.00110417
-0.00126712
-0.00176664
-0.000981289
-0.000753174
-0.00150349
-0.0011607
-0.00220392
-0.00043879
0.000229407
-0.00131797
-0.00184117
-0.00156657
-0.000118649
-1.71581e-05
-0.000139443
0.000141759
-0.00244488
-0.000810104
-0.00392711
-0.000561435
0.0010146
-0.00102929
-0.0031424
3.54055e-05
-0.000792172
-0.000571766
-0.000691574
-0.00102265
-0.00127397
-0.000980495
-0.000579974
-0.00144767
-0.000773402
0.000156721
0.000401383
-0.000268812
-0.000190965
-5.41928e-05
0.000192796
-0.000934618
-0.000688978
-0.00106772
-0.00065419
-0.00145388
-0.00108794
0.00107562
0.000636554
-0.00374055
-0.00162322
-0.00193661
-0.00232881
-0.00194068
-0.00236768
-0.00179396
-7.74012e-05
-0.000132309
7.65636e-05
-0.00185742
-0.00116116
-0.00206806
-0.00135824
-0.00544686
-0.0013957
-0.00151465
-0.001736
-0.00146156
-0.00111778
-0.00139626
-0.00242107
-0.00163414
-0.000410554
-0.00172342
-0.00464574
-0.00114491
-0.000216847
0.000180592
-0.00385662
-0.00171314
-0.00174511
-0.000793689
-0.000159342
-0.00137937
-0.00267604
-0.00102127
-0.00355989
-0.00109194
-0.00114123
-0.00204301
-0.00114098
-0.00126012
-0.00191916
-0.00121
-0.00114388
-0.00125428
-0.0013921
-0.00140351
-0.0020692
-0.000716913
-0.000755371
-0.00145658
-0.00115461
-0.00112963
-0.000943022
-0.000877295
-0.00140869
-0.00103856
-0.00160216
-0.00103364
-0.00135302
-0.00232172
-0.00203126
-0.00158161
-0.000643785
-0.00191974
-0.00178797
-0.00144283
-0.00116844
-0.000478527
0.000477131
-0.000395617
5.055e-05
0.00021147
7.7275e-05
-0.000444968
-0.00214326
-0.00171762
-0.00116725
-0.00178741
-0.00228028
-0.00242724
-0.00149186
-0.0015722
-0.000597106
-0.000166956
-0.000394109
5.96353e-05
2.73029e-05
-3.44372e-05
-7.97307e-05
-4.88432e-05
-5.88742e-05
-0.000524154
-0.000535908
-0.000268976
8.46869e-05
0.000101847
-0.00193515
-0.000583463
-0.00276022
-0.0015062
-0.00181959
-0.00347979
-0.00187645
-0.00259167
-0.000766081
-0.0033982
-0.00304391
-0.00243425
-0.00224884
-0.000850693
0.00139485
-0.000863046
0.000380023
0.000742732
0.000828041
0.00132786
-0.000509041
-0.00151696
-0.00116601
0.00198962
-0.00216693
-0.00350681
-0.00590124
0.000382253
-0.0018255
-0.000855127
-0.00185389
-0.000929748
-0.000746978
-0.000751227
-0.000777374
-0.000995691
-0.000965932
-0.00130485
-0.000844959
-0.000793557
-0.00127538
-0.000875822
-0.000684442
-0.00139395
-0.000463359
-0.000225401
-0.00141363
-0.000689203
-0.00070508
-0.000439753
-0.000256635
-0.000955688
-0.00110422
-0.002039
-0.000953048
-0.0017874
-0.00157978
-0.000691821
-0.000386344
-2.0472e-05
0.000159003
0.000238476
-0.000153279
-2.83534e-05
0.000964757
-0.000542172
-0.000113042
-8.78359e-05
-4.7751e-05
-9.65936e-05
-0.000141006
-0.000363981
-7.04058e-05
-7.1731e-05
1.62469e-05
0.000154868
0.000100393
4.19355e-06
1.5525e-05
-0.000761916
-0.000884533
-0.000400546
-0.00118427
-0.000376953
0.000387604
0.000119989
0.00107147
0.000279067
-0.00173481
-0.000614586
-0.000694964
0.00124776
0.00034418
-0.000117828
-0.0008617
-0.00192261
-0.000944129
-0.00227087
-0.00228001
-0.000802404
0.000123242
0.000234727
-3.04084e-05
-0.00114385
-0.000452026
0.000268565
0.00241628
-0.00671582
-0.00222615
-0.00513705
-0.00397094
-0.000239957
0.00134513
0.000125224
-0.00201439
-0.00198494
-0.00235452
-0.00150869
-0.00121089
-0.0016331
-0.0027088
-0.00210071
-0.00154891
-0.00252936
-0.00232735
-0.001081
-0.00130838
-0.00314966
-0.001959
-0.0019758
-0.0008709
-0.00189625
-0.0031186
-0.00124916
-0.00181569
-0.00132713
-8.21191e-05
-7.33906e-05
-2.32242e-05
-3.15114e-05
-0.00012904
-0.000108985
-0.000159613
7.92747e-05
-5.36052e-05
6.39497e-05
-5.54315e-05
-6.70814e-05
6.81101e-05
-0.000621345
-0.00326471
-0.00147994
-0.00124544
0.000958865
-3.40678e-05
-0.00239288
-0.00319699
-0.00106179
-0.0014755
-0.000491672
-0.000306683
-1.38043e-06
-0.00369214
9.17168e-05
0.0001241
-0.00091638
-0.00320264
-0.00193109
-0.00318872
-0.00689312
-0.00113563
-0.00120258
-0.00158486
-0.00137134
-0.00136967
-0.00118992
-0.00138957
-0.0015418
-0.00129761
-0.00151318
-0.0016508
-0.00163247
-0.00151823
-0.00129702
-0.000964755
-0.00136094
-0.00137652
-0.00139979
-0.000647446
-0.00166257
-0.00177619
-0.000961327
-0.000785211
-0.00195168
-0.000365595
-0.000868975
-0.000434741
-0.00254195
-0.00227811
-0.0010631
-0.00238146
-0.00274646
-0.00153293
-0.00166172
-0.00110804
-0.00216841
-0.00201034
-0.00185174
-0.000674549
-0.00232987
-0.00231671
-0.000932873
-0.000114183
-0.00183975
0.00030844
-8.64129e-05
8.37834e-05
-0.00214008
-0.00543347
-0.00166149
-0.00354788
-0.00717223
-0.0017764
-0.00133361
-0.00156422
-0.000948934
-0.00118367
-0.000987777
-0.00124602
-0.00144023
-0.000152796
-9.44278e-05
-0.00019778
-0.000341919
-0.000227998
-0.000620313
-0.000289499
-0.000618043
0.000184294
0.000157501
-0.000402513
-0.000348933
-0.000439445
0.000183392
0.000234744
0.000249363
-0.00567177
-0.00155845
-0.000230858
-0.00467154
-0.00679119
-0.00438599
-0.00470982
-0.00350455
-0.00164808
-0.0013933
-0.00165907
-0.00177715
-0.00144634
-0.00100913
-0.00123154
-0.00129439
-0.00141147
-0.00131375
-0.00144159
-0.000877975
-0.00142498
-0.00102056
-0.00177873
-0.00117459
-0.00189897
-0.00201258
-0.00171642
-0.00125854
-0.00168829
-0.00151118
-0.00186269
-0.0016284
-0.0017082
-0.00121256
-0.00163136
-0.00191661
-0.000367703
-0.000738582
-0.000238299
-0.000372937
-0.000414171
-8.22009e-05
-0.000354721
-0.000260324
0.000119626
2.2412e-05
-0.000110416
-0.000210051
-0.000314686
-0.00124908
-0.00106273
-0.00121813
-0.00131767
-0.0013303
-0.00109235
-0.0015618
-0.00129217
-0.00194235
-0.00127176
-0.00148636
-0.00314234
-0.00320234
-0.00117751
-0.000789327
-0.000894897
-0.000165939
-0.00113398
-0.000733665
-0.00144577
-0.00214842
-0.000914684
-0.00106318
-0.00178952
0.000306004
2.40544e-05
-0.000247051
-0.00045708
-0.000230383
-0.0003689
-0.00132476
-0.0015224
-0.001658
-0.00113583
-0.00158841
-0.00168912
-0.000567709
-0.00088453
-0.000629025
-0.00157691
-0.00263112
-0.0018757
-0.00109814
-0.00131316
-0.00159361
-0.00285154
-0.00159936
-0.00163404
-0.00397798
-0.00187093
-0.00260397
-0.00450676
-0.0069333
-0.00335457
-0.00272762
-0.00192444
-0.000181929
-0.00102819
-0.000763469
-0.000517941
-0.000799542
-0.000740452
-0.000727801
-0.00117727
-0.00115752
-3.35336e-05
-0.00083096
-0.00124974
-0.00163984
-0.00137466
-0.00181879
-0.00189321
-0.00145805
-0.00116233
-0.00130318
-0.0016269
-0.00179975
-0.00166784
-0.00113522
-0.00177242
-0.00179959
-0.00143217
-0.00150696
-0.00222484
-0.00329676
-0.00170919
-0.00267319
-0.00180758
-0.00212316
-0.000805223
-0.0032642
-0.00204807
-0.00167552
-0.00103855
-0.000357524
-0.000932887
-0.00291664
-0.00228001
-0.00118046
-0.00204071
-0.00119591
-0.0017704
-0.00213242
-0.0020694
-0.000440226
-0.00123683
-0.0017796
-0.000113232
-7.82073e-05
-0.000234791
6.01848e-06
4.64225e-05
-0.000216273
0.00124823
0.000510756
-0.000709919
3.1787e-05
-0.000469588
-0.000327848
-0.00144888
-0.00127171
-0.00114004
-0.00161497
-0.00207417
-0.000277595
-0.00173116
-0.00192169
-0.000211961
-0.00140737
-0.00145672
-0.000162379
-0.00207346
-0.00134895
-0.00195036
-0.00276632
7.65335e-06
-0.00217721
-0.0027426
-0.00225785
-0.00122415
-0.00241761
-0.00141343
-0.000149525
-0.00328667
-0.000454493
-0.000119647
-0.00109351
-0.00180911
-0.0013143
-0.000106528
-0.00192645
-0.000351763
9.41756e-05
-0.00186103
-0.00213585

SCALARS S_Mises double 1
LOOKUP_TABLE  table11
0.00345533
0.00376822
0.00631165
0.000100261
0.000320767
0.0101014
0.0128314
0.0178283
0.0240625
0.0126104
0.0100291
0.00581997
0.00380358
0.00197826
0.00864657
0.00417867
0.00908151
0.000178781
0.000441821
0.00944764
0.0151924
0.0170944
0.0195474
0.0128095
0.00847905
0.00629269
0.00299813
0.00291766
0.00231026
0.00354728
0.00336884
0.00229861
0.00204964
0.00492128
0.00453443
0.00603485
0.00674137
0.00597692
0.00632977
0.00826212
0.00504979
0.000977256
0.000197987
0.000797189
0.00185074
0.0108405
0.00945773
0.0124852
0.0146248
0.0115176
0.00969227
0.0171538
0.0131526
0.00242545
0.00187293
0.00203817
0.00328357
0.00260463
0.00465062
0.00382334
0.00550134
0.00701925
0.00417408
0.00716858
0.00145396
0.00111221
0.000501938
0.00154817
0.00894764
0.00638239
0.010091
0.00973669
0.0114897
0.014585
0.0143538
0.014034
0.0156166
0.0118647
0.00351228
0.00454798
0.00415748
0.00473505
0.00508736
0.000234915
0.000268061
0.00044561
0.00670314
0.00628587
0.00880518
0.00790062
0.0114126
0.0026499
0.00272285
0.00333362
0.00306516
0.00425944
0.00395612
0.00606596
0.00561442
0.00789911
0.00629196
0.0103453
0.0022068
0.00103891
0.00119672
0.0102204
0.00306788
0.00325636
0.00301276
0.0010697
0.00299737
0.0055193
0.00475752
0.00943896
0.00971687
0.00526636
0.00519109
0.0022338
0.00258518
0.00349021
0.00295624
0.0034165
0.00308597
0.00316266
0.00372293
0.00416924
0.00148183
0.00158391
0.0030696
0.00241519
0.00246101
0.00222995
0.00269251
0.00409803
0.00380281
0.0047777
0.00396215
0.00446886
0.00669597
0.00637881
0.00624063
0.00788257
0.00527321
0.00542981
0.00579079
0.00551946
0.00596699
0.00670733
0.00529851
0.00543613
0.00585409
0.00641306
0.0070079
0.00805904
0.00594903
0.00432068
0.00858704
0.00744237
0.00775838
0.00852107
0.00733372
0.00276739
0.000809517
0.00286126
0.000461448
0.000209066
0.000314338
0.00027791
0.000148951
0.000224167
0.00240454
0.00725321
0.00289736
0.00103954
0.000766607
0.00878089
0.0095107
0.011012
0.00925188
0.00929852
0.0128278
0.0107886
0.013234
0.0158949
0.0116714
0.0115978
0.0119615
0.011881
0.0132759
0.0132939
0.010404
0.0116575
0.0127039
0.0113495
0.0142824
0.0135439
0.0120942
0.0119123
0.012359
0.0114347
0.0169071
0.0248568
0.0163315
0.00453807
0.002343
0.00466036
0.00278477
0.00275559
0.00221248
0.00191235
0.00217162
0.0023364
0.00394162
0.00253131
0.0028731
0.00297471
0.00239438
0.00186155
0.00270098
0.00398476
0.00385541
0.00565312
0.00465378
0.00435733
0.00332202
0.0028368
0.00442991
0.00471355
0.00744865
0.00685155
0.00655623
0.00590951
0.00738914
0.00605985
0.00560787
0.00474319
0.00739987
0.00607633
0.00594365
0.00710823
0.00580438
0.00263164
0.00036316
0.000348527
0.000736645
0.00196341
0.00394156
0.000287002
0.000663722
0.000467915
0.000659993
0.000989015
0.00214377
0.00382406
0.00897566
0.00753745
0.00848427
0.0078204
0.00742184
0.00615494
0.00619576
0.0100296
0.00867453
0.011362
0.00988574
0.0097176
0.00902766
0.00806177
0.0113188
0.0104104
0.0130964
0.0141412
0.0127363
0.0123639
0.0155718
0.0137948
0.0129679
0.0153233
0.0163517
0.0140826
0.0123606
0.0149095
0.0200765
0.0147486
0.0213092
0.0163192
0.01547
0.0126375
0.0118924
0.00365976
0.00359125
0.00444023
0.00337702
0.00257281
0.00347497
0.00620343
0.00383149
0.00376379
0.00460186
0.00429312
0.00401017
0.00433102
0.00669366
0.00523794
0.00490023
0.00382338
0.00516019
0.00576646
0.00673142
0.00545689
0.00430985
0.000213496
0.000172585
0.000140069
0.000221013
0.000279026
0.000254081
0.000302655
0.000467169
0.000291678
0.000439547
0.0004005
0.0002397
0.00887349
0.00766079
0.00917283
0.0088316
0.00927986
0.00989336
0.0078277
0.00924913
0.00736399
0.0121654
0.00954716
0.00869376
0.00857834
0.00682974
0.0135213
0.0112771
0.0111464
0.0101447
0.0167856
0.0115578
0.00787314
0.0127401
0.0023133
0.00273601
0.00308294
0.00274424
0.00257808
0.00232529
0.00260888
0.00295713
0.00308945
0.00275948
0.00316561
0.00350638
0.00304641
0.00358823
0.0028518
0.0035487
0.00374287
0.00464672
0.00520092
0.00418761
0.00368552
0.00418327
0.00438648
0.0064712
0.00466329
0.00375761
0.00481567
0.00663379
0.00751535
0.00520464
0.00693156
0.00760245
0.0055035
0.00792416
0.00612927
0.00748826
0.00730883
0.00879893
0.0107954
0.00802927
0.00637371
0.00789136
0.00853211
0.0126629
0.00969971
0.00615817
0.00908808
0.0100731
0.0167265
0.00952821
0.0109477
0.0152003
0.00329426
0.00253144
0.00331398
0.00210169
0.00241813
0.0019715
0.00238158
0.00303569
0.000383074
0.000349403
0.000424441
0.00122782
0.00265248
0.00236759
0.00132768
0.00350885
0.00126257
0.000723242
0.00421826
0.00250912
0.00385145
0.000724461
0.00137445
0.000752408
0.0182777
0.0178271
0.0109546
0.0118885
0.0147578
0.0093416
0.0102271
0.0104821
0.00303237
0.00259912
0.00326991
0.00327422
0.00289255
0.00191721
0.00236524
0.00239045
0.00261447
0.00254438
0.00294273
0.00205071
0.00265367
0.00247912
0.00319812
0.0029312
0.00345418
0.00371699
0.00365138
0.00292571
0.0033414
0.00320244
0.00335254
0.00316069
0.00335861
0.00312521
0.00392559
0.00369635
0.00191012
0.00495193
0.000724696
0.00145125
0.00307658
0.00195646
0.00280895
0.00154453
0.000840569
0.000498103
0.000727317
0.000618819
0.00123522
0.00311
0.00314917
0.00314423
0.00291455
0.00407216
0.00291916
0.00306296
0.00339637
0.00598893
0.00417961
0.00455527
0.00628312
0.00740477
0.0055878
0.0052269
0.00462271
0.00487345
0.00565158
0.00579841
0.00533742
0.00702944
0.00583262
0.00530355
0.00504213
0.00615847
0.0043526
0.00605887
0.00266691
0.00363116
0.00402145
0.00394596
0.00472624
0.00346751
0.00343482
0.0044511
0.00386998
0.00579503
0.00416492
0.00558644
0.00437383
0.0052695
0.00520543
0.00390873
0.00423005
0.00374113
0.00737753
0.00951369
0.00791449
0.0125063
0.00924806
0.00959523
0.0141418
0.0153877
0.00871691
0.00896415
0.00780002
0.0122059
0.0112381
0.0115418
0.00768322
0.0106432
0.010002
0.00732393
0.00853678
0.00608396
0.00651127
0.00618269
0.00555187
0.00776976
0.0067023
0.00729941
0.00598293
0.0060441
0.00613172
0.00665436
0.0048511
0.00740594
0.0046596
0.00327896
0.00421497
0.00587141
0.00709125
0.00710975
0.00593639
0.00627041
0.00460398
0.00718363
0.00492575
0.00652258
0.0117232
0.0136619
0.011432
0.00822896
0.00728514
0.00837537
0.00830959
0.00798899
0.0105043
0.0106504
0.0090649
0.0120516
0.00826532
0.00940149
0.00630052
0.00708931
0.00819252
0.00738355
0.000360599
0.0003345
0.000941356
0.000590497
0.00067411
0.00135835
0.0123164
0.00972208
0.013351
0.00104477
0.00195076
0.00186379
0.00270602
0.00245027
0.00229107
0.0030936
0.00380703
0.00121964
0.00324714
0.00526245
0.00426858
0.0034629
0.00424864
0.0043557
0.00541922
0.0034665
0.00456164
0.00658066
0.00931402
0.00541269
0.00526572
0.00857217
0.00653119
0.00987651
0.0068961
0.000630069
0.0117564
0.00190252
0.000358954
0.00697578
0.00816778
0.00274572
0.00956795
0.00529896
0.00215692
0.00101245
0.00800831
0.0125741
