# vtk DataFile Version 3.0
The density field of the optimized results
ASCII
DATASET UNSTRUCTURED_GRID

POINTS	625	double
-0.0286679		1.01133		-0.213674
0.972542		1.0074		-0.151801
1.97631		1.00363		-0.0946426
1.98033		2.00359		-0.0909717
2.98039		2.00098		-0.0442777
2.98052		1.00168		-0.0481624
3.98873		0.99879		-0.0139263
4.99641		1.00036		-0.00027728
5		0		0
3.98765		0.00148241		-0.0151932
2.97814		0.0028621		-0.0484406
1.97275		0.00498302		-0.096676
0.968684		0.00791693		-0.153033
-0.0325688		0.0112953		-0.214807
0.0325155		1.0121		-1.2146
1.03091		1.00914		-1.15159
2.02627		1.00631		-1.09513
2.02702		2.00661		-1.09101
3.02692		2.00392		-1.04436
3.02231		1.00341		-1.04751
4.01205		1.0019		-1.01491
5		1		-1
5		0		-1
4.01077		-0.000802456		-1.01433
3.01902		0.00208882		-1.04883
2.02415		0.00504661		-1.09622
1.02755		0.00867644		-1.15316
0.028549		0.0124043		-1.2149
0.469659		0.509451		-0.18297
0.970564		0.507639		-0.152544
0.471706		1.00931		-0.182243
-0.0306063		0.511296		-0.213885
0.467733		0.00954376		-0.183599
1.47204		0.505939		-0.123367
1.47388		1.00566		-0.122763
1.47063		0.00640871		-0.123838
1.97425		0.504341		-0.0960883
2.47499		0.00390701		-0.071406
2.47687		0.503199		-0.0711603
2.97973		0.502169		-0.0487818
2.47801		1.00245		-0.0703956
2.47903		1.50223		-0.0690646
2.48035		2.00223		-0.0675845
1.9789		1.50361		-0.0925631
2.97926		1.50114		-0.0458935
3.48342		0.501095		-0.0298631
3.48447		1.00039		-0.029862
3.48296		0.0022115		-0.0295216
3.98846		0.500141		-0.0152955
4.4924		0.000975904		-0.005396
4.49363		0.499955		-0.00536104
4.99597		0.500374		-0.000194412
4.49338		0.998997		-0.00524682
0.53193		1.01078		-1.18241
0.530035		0.510664		-1.18314
0.0303668		0.51243		-1.2139
1.0293		0.508868		-1.15246
0.528205		0.0105685		-1.18372
1.52763		0.507194		-1.12328
1.52629		0.00684505		-1.12377
1.52914		1.00763		-1.12252
2.02539		0.505731		-1.09611
2.52445		1.00522		-1.07049
2.52278		0.504338		-1.07174
2.02583		1.50659		-1.09257
2.52569		1.50534		-1.06904
2.52701		2.00531		-1.06763
3.02543		1.50383		-1.0459
3.02025		0.502716		-1.04858
2.52166		0.00370194		-1.07185
3.51636		0.501389		-1.02947
3.51534		0.000473251		-1.02932
3.51728		1.0024		-1.02927
4.01126		0.500648		-1.01533
4.50652		1.00168		-1.00545
4.50599		0.500236		-1.0066
5.00201		0.499707		-1.0004
4.50567		-0.000466813		-1.00585
0.501611		1.01008		-0.682269
0.00163982		1.01185		-0.713456
1.00154		1.00824		-0.651381
1.50147		1.0066		-0.622385
2.00125		1.00496		-0.594555
2.50368		2.00377		-0.567595
2.00369		2.00511		-0.590983
3.00366		2.00246		-0.544288
3.50086		1.0013		-0.528952
3.0009		1.00238		-0.547196
4.00051		1.00024		-0.513559
4.49961		1.00023		-0.504442
5.00019		0.999717		-0.499604
-0.00188422		0.0118382		-0.714574
0.498088		0.0100312		-0.68356
0.998113		0.00828813		-0.652911
1.49819		0.00662833		-0.623571
1.99848		0.00504559		-0.596007
2.49853		0.00378293		-0.571278
2.99851		0.00251559		-0.548047
3.49877		0.00137653		-0.528881
3.99932		0.000365213		-0.513885
4.49952		0.000108543		-0.504883
4.99987		0.000161392		-0.499928
-5.57129e-05		0.511826		-0.713787
2.00233		1.50511		-0.592549
3.00237		1.50245		-0.54588
4.99963		0.500058		-0.500046
0.499844		0.51005		-0.682951
0.999757		0.508244		-0.652362
2.50093		1.00379		-0.570206
2.50237		1.50378		-0.568997
1.49997		0.506598		-0.623099
2.49986		0.503822		-0.571145
2.00003		0.504871		-0.595244
4.49995		0.500224		-0.505225
4.00035		0.500048		-0.513487
3.50014		0.501316		-0.529215
2.99983		0.502431		-0.548194
0.220431		0.760398		-0.198129
0.470639		0.759392		-0.182637
0.221464		1.01034		-0.197831
0.719055		0.258621		-0.167954
0.969632		0.257763		-0.15282
0.72001		0.508513		-0.167663
0.720988		0.758443		-0.167326
0.971547		0.757514		-0.152183
0.72205		1.00834		-0.16691
-0.0296358		0.761345		-0.213603
0.21947		0.510384		-0.198423
-0.0316425		0.26123		-0.214591
0.21749		0.0104036		-0.199131
0.218506		0.260361		-0.198809
0.468694		0.259489		-0.183318
0.718102		0.00872796		-0.168236
1.22227		0.756674		-0.137463
1.22315		1.00654		-0.13714
1.22035		0.256914		-0.138058
1.22121		0.506773		-0.13779
1.47295		0.755813		-0.123055
1.72383		0.754928		-0.109058
1.72485		1.00472		-0.108686
1.72304		0.505122		-0.10943
1.97507		0.753968		-0.0954702
1.21963		0.00715804		-0.138271
1.47128		0.256143		-0.123648
1.7224		0.255378		-0.109749
1.7217		0.0056359		-0.109902
1.97345		0.254683		-0.0965179
2.22552		0.503724		-0.0833633
2.2264		0.753371		-0.0828643
2.22383		0.00439006		-0.0837885
2.22459		0.254086		-0.0836721
2.4759		0.253562		-0.0714616
2.72636		0.00343403		-0.059717
2.72735		0.253002		-0.0596588
2.47748		0.752821		-0.0708654
2.22719		1.00301		-0.0823485
2.97897		0.25248		-0.048779
2.72822		0.50266		-0.0596544
2.72881		0.752275		-0.0593158
2.98036		0.751893		-0.0485218
2.72901		1.0019		-0.0588893
2.22808		1.25287		-0.0816046
2.22894		1.50288		-0.0808087
1.97797		1.25366		-0.0934839
2.72974		1.75161		-0.0566674
2.73037		2.00161		-0.0559236
2.47969		1.75224		-0.0683407
2.22965		1.75289		-0.0800422
2.23034		2.00289		-0.079275
1.97964		1.75359		-0.0917483
2.47842		1.25227		-0.0697641
2.97906		1.25134		-0.0468297
2.72881		1.25171		-0.0581678
2.72918		1.50163		-0.0574502
2.97976		1.75102		-0.0450732
3.2323		0.751382		-0.0388297
3.23259		1.00101		-0.038713
3.23087		0.251973		-0.0388452
3.23142		0.501622		-0.0388991
3.48396		0.75076		-0.0298449
3.73594		0.750079		-0.0218019
3.73642		0.999642		-0.0217206
3.73575		0.500587		-0.0219057
3.98863		0.749422		-0.0147061
3.23061		0.00258311		-0.0386188
3.4831		0.251598		-0.0297903
3.73557		0.251169		-0.0218709
3.73535		0.00175176		-0.0215566
3.98799		0.250861		-0.0154686
4.24113		0.500005		-0.00990041
4.2414		0.749634		-0.00930708
4.24		0.00129171		-0.00965442
4.24062		0.250664		-0.010006
4.49284		0.250397		-0.00548969
4.74525		0.00086845		-0.0024115
4.74567		0.249969		-0.00262671
4.49384		0.749621		-0.00536518
4.24105		0.999037		-0.00906813
4.99613		0.250601		-0.000162498
4.74543		0.500183		-0.00263541
4.7466		0.749773		-0.00267187
5		0.75		0
4.7455		0.999055		-0.00285628
0.282212		1.01147		-1.19806
0.281243		0.761506		-1.19824
0.031429		0.762296		-1.21404
0.781545		1.00999		-1.16698
0.780606		0.759862		-1.16744
0.530971		0.760732		-1.18277
0.28026		0.511543		-1.1985
0.279358		0.261529		-1.19888
0.0294879		0.26243		-1.21448
1.03013		0.758979		-1.15205
0.779726		0.509784		-1.16777
1.02847		0.258767		-1.1528
0.777924		0.00963346		-1.16838
0.778888		0.25972		-1.16806
0.529162		0.260605		-1.18343
0.27839		0.0114921		-1.19921
1.27923		0.758203		-1.13735
1.27858		0.508		-1.13774
1.77594		0.256204		-1.10957
1.77534		0.00596928		-1.10976
1.52698		0.257005		-1.12357
1.2778		0.25789		-1.13805
1.27703		0.00773883		-1.13831
1.28008		1.00841		-1.13694
1.52835		0.757384		-1.12295
1.77793		1.00691		-1.10856
2.02602		0.756014		-1.09571
1.77729		0.756615		-1.10905
1.77669		0.506395		-1.10944
2.02471		0.255373		-1.09622
2.27528		1.00586		-1.08251
2.27486		0.755489		-1.0831
2.77358		1.00445		-1.05883
2.77225		0.753962		-1.05971
2.52356		0.754861		-1.07122
2.27406		0.505126		-1.08357
2.27341		0.254668		-1.08389
2.0255		1.2565		-1.09357
2.27531		1.25599		-1.08164
2.02639		1.75661		-1.09176
2.27639		1.75597		-1.08005
2.27578		1.50599		-1.08081
2.52504		1.25535		-1.06977
2.77464		1.2546		-1.05806
2.27702		2.00597		-1.07932
2.52635		1.75531		-1.06833
2.77697		2.00463		-1.05598
3.02622		1.7539		-1.04513
2.77628		1.75463		-1.05671
2.77557		1.50463		-1.0574
3.02427		1.25368		-1.04673
3.0209		0.753049		-1.04819
2.77159		0.503608		-1.06002
3.01987		0.252396		-1.04866
2.77041		0.0029097		-1.06016
2.77131		0.253358		-1.06002
2.52233		0.253982		-1.07182
2.27286		0.00439625		-1.08394
3.26887		0.752387		-1.03839
3.26833		0.501973		-1.03877
3.76369		0.250436		-1.02146
3.76312		-0.000107589		-1.02138
3.5159		0.250981		-1.02958
3.26805		0.251539		-1.0388
3.26728		0.0011151		-1.03868
3.26963		1.00295		-1.03819
3.51667		0.751836		-1.02951
3.76485		1.00204		-1.02142
4.01162		0.751236		-1.01522
3.76431		0.751423		-1.02173
3.76409		0.500901		-1.02185
4.01087		0.249946		-1.01497
4.25931		1.00174		-1.00942
4.259		0.751083		-1.00991
4.75364		1.00123		-1.00252
4.75311		0.750417		-1.00317
4.50601		0.750961		-1.0062
4.2585		0.500508		-1.01026
4.25807		0.249791		-1.01043
5		0.75		-1
4.75386		0.500083		-1.0032
5		0.25		-1
4.75311		-0.000506045		-1.00276
4.75359		0.249983		-1.00281
4.50574		0.249793		-1.00634
4.25814		-0.000726675		-1.00984
0.236599		1.01068		-0.447862
0.251642		1.01094		-0.697861
-0.0134217		1.01157		-0.46361
0.766414		1.00959		-0.916865
0.516638		1.01042		-0.932332
0.26672		1.01123		-0.947944
0.0168126		1.01205		-0.963954
0.486711		1.0097		-0.432208
0.987083		1.0078		-0.401544
0.736789		1.00875		-0.416841
0.75154		1.00917		-0.666815
1.0161		1.00871		-0.901411
1.23748		1.00698		-0.386876
1.73835		1.00519		-0.358405
1.48791		1.00611		-0.37246
1.25151		1.00743		-0.636655
1.26562		1.00792		-0.886781
1.98882		1.00435		-0.344512
1.75147		1.00577		-0.608263
2.01368		1.00557		-0.844753
1.76458		1.00636		-0.858335
1.51515		1.00715		-0.872323
2.24202		2.00366		-0.329273
1.99202		2.00436		-0.340974
2.74202		2.00236		-0.305928
2.49202		2.003		-0.317584
2.25369		2.00443		-0.579279
2.26535		2.0052		-0.829297
2.01536		2.00586		-0.840994
2.99203		2.00173		-0.294281
2.75368		2.00311		-0.555927
3.0153		2.00319		-0.794312
2.76533		2.00388		-0.80593
2.51534		2.00455		-0.817603
3.24193		1.00143		-0.288037
2.99065		1.00205		-0.297522
3.74395		1.00004		-0.271126
3.49304		1.00078		-0.279158
3.25087		1.00186		-0.537533
3.26007		1.00241		-0.787762
3.01139		1.00283		-0.797248
3.99473		0.999407		-0.263545
3.75089		1.00076		-0.520816
4.00622		1.00113		-0.763995
3.75778		1.00153		-0.770949
3.50892		1.00198		-0.778777
4.24543		0.999612		-0.258544
4.25004		1.00025		-0.508389
4.75103		1.00052		-0.75172
4.50289		1.00092		-0.754717
4.25453		1.00102		-0.758701
4.49678		0.999451		-0.25455
5		1		-0.25
4.74816		0.999362		-0.251998
4.74982		0.999822		-0.501772
5.00087		0.999971		-0.74991
0.48299		0.00978478		-0.433543
0.733168		0.00894397		-0.418143
-0.0171627		0.0114893		-0.464894
0.232901		0.0106446		-0.449091
0.248126		0.010926		-0.699075
0.0132673		0.0121614		-0.964573
0.26321		0.0112186		-0.949106
0.748106		0.00916365		-0.668151
0.983471		0.00812578		-0.402932
0.513144		0.0102954		-0.933618
0.763005		0.00939804		-0.918241
1.01275		0.00845516		-0.903
1.24814		0.0074458		-0.638094
1.23383		0.00730527		-0.388118
1.26245		0.00749776		-0.888162
1.51213		0.00671713		-0.873546
1.76165		0.00587548		-0.859584
1.73494		0.00574953		-0.359624
1.98569		0.005113		-0.346307
1.48435		0.00652554		-0.37366
1.74831		0.00579758		-0.609502
2.01122		0.0050328		-0.846014
2.48694		0.00383419		-0.321168
2.73758		0.00329294		-0.309522
2.23645		0.00447687		-0.33351
2.24857		0.0043778		-0.583379
2.26063		0.00428463		-0.833571
2.74851		0.00318427		-0.559547
2.98836		0.00268477		-0.298094
2.50994		0.00366648		-0.821474
2.75936		0.00307563		-0.809679
3.00858		0.00228745		-0.798313
3.24863		0.00191175		-0.538125
3.23939		0.00221785		-0.288204
3.25776		0.00133421		-0.788282
3.50698		0.000915224		-0.778813
3.75588		0.000352166		-0.770948
3.74195		0.00132627		-0.270993
3.99342		0.00107356		-0.264385
3.49069		0.00179529		-0.279106
3.74901		0.000809745		-0.520756
4.00495		-0.000217758		-0.763933
4.49637		0.000604744		-0.254881
4.74779		0.00033947		-0.251892
4.24488		0.000761746		-0.259107
4.24946		9.6657e-06		-0.508814
4.25382		-0.000522393		-0.759179
4.74994		2.83355e-06		-0.501806
5		0		-0.25
4.50257		-0.000125554		-0.755095
4.75155		-0.00026816		-0.752156
5		0		-0.75
0.00077971		0.761841		-0.713573
-0.0143557		0.761555		-0.463624
0.0159325		0.762148		-0.963686
0.0150999		0.512125		-0.963826
0.0142053		0.262109		-0.964307
-0.0152857		0.511585		-0.463832
-0.000986089		0.261864		-0.714189
-0.0162373		0.261567		-0.464374
1.99133		1.75436		-0.341751
2.01469		1.75586		-0.841755
2.00301		1.75511		-0.591749
1.99061		1.50439		-0.342578
1.98971		1.25439		-0.343468
2.00176		1.25505		-0.593486
2.0141		1.50583		-0.842565
2.01362		1.25574		-0.843526
2.99082		1.50181		-0.295896
2.99138		1.75175		-0.29508
2.9904		1.25189		-0.296746
3.00173		1.25246		-0.546655
3.01295		1.25301		-0.796675
3.00299		1.75245		-0.545089
3.01392		1.50313		-0.795872
3.01461		1.75317		-0.795105
5		0.75		-0.25
5		0.25		-0.25
4.99797		0.500204		-0.250082
5.00024		0.749996		-0.499764
5		0.75		-0.75
4.99979		0.25004		-0.499925
5.00086		0.249854		-0.75019
5.00085		0.499758		-0.750307
0.235665		0.760665		-0.44809
0.484813		0.509751		-0.432915
0.763804		0.259424		-0.917988
0.748914		0.259147		-0.667883
0.734033		0.25888		-0.417882
0.234752		0.510664		-0.448374
0.483871		0.259751		-0.433254
0.248987		0.260933		-0.698726
0.249925		0.510935		-0.698365
0.264105		0.26121		-0.948778
0.513995		0.260323		-0.933337
0.265032		0.511231		-0.948419
0.25076		0.76095		-0.698086
0.515768		0.760388		-0.932677
0.485748		0.759724		-0.432589
1.01355		0.258476		-0.902717
0.749799		0.509143		-0.667578
0.735872		0.758801		-0.417224
0.986119		0.757875		-0.402044
0.984338		0.258029		-0.402709
0.998966		0.258261		-0.652615
0.985229		0.507954		-0.402406
0.500726		0.760068		-0.682613
0.764665		0.509464		-0.917639
0.765541		0.759498		-0.917281
1.01443		0.508542		-0.902374
1.0153		0.758607		-0.901923
1.0007		0.758247		-0.651925
2.51331		1.25458		-0.819674
2.76205		1.00375		-0.8086
2.26405		1.50522		-0.83077
2.25169		1.25445		-0.581477
2.23905		1.00375		-0.332194
2.76314		1.25384		-0.808022
2.2399		1.25368		-0.331485
2.50168		1.25378		-0.569627
2.76395		1.50386		-0.807379
2.76465		1.75387		-0.806681
2.51469		1.75456		-0.818331
2.26469		1.75521		-0.830045
2.25237		1.50445		-0.580752
1.23468		0.257179		-0.387888
1.23654		0.757025		-0.387301
1.23558		0.507102		-0.387615
1.4991		0.256618		-0.623342
1.76257		0.255989		-0.859361
1.26326		0.257602		-0.887894
1.24984		0.507395		-0.637539
1.51295		0.256801		-0.873382
2.73815		0.253032		-0.309437
2.23845		0.753916		-0.332772
2.48849		0.503531		-0.321038
2.74928		0.253201		-0.559534
2.75995		0.253238		-0.809822
2.48769		0.253648		-0.321229
2.01203		0.255096		-0.845691
2.24936		0.254406		-0.583215
2.23795		0.504089		-0.333073
1.98797		0.754395		-0.344944
2.26126		0.254494		-0.833464
2.24995		0.504354		-0.582999
2.51061		0.253921		-0.821453
2.01268		0.505273		-0.845626
2.01325		0.755414		-0.845283
2.00057		0.754902		-0.595064
2.2619		0.504702		-0.83323
2.25048		0.754379		-0.582644
2.51197		0.754271		-0.820884
2.25106		1.0044		-0.582169
2.51258		1.00449		-0.82029
2.26306		1.0051		-0.832277
1.48514		0.256374		-0.373442
1.73646		0.50545		-0.35914
1.74911		0.255775		-0.609306
1.4869		0.756189		-0.372873
1.73732		0.755312		-0.358801
1.74997		0.50576		-0.609028
1.98717		0.504656		-0.345645
1.99922		0.254957		-0.595749
1.98637		0.254891		-0.34614
1.51435		0.756981		-0.872766
1.75071		0.755739		-0.608779
1.76337		0.506083		-0.859067
1.26483		0.757778		-0.88718
1.51373		0.506896		-0.873095
1.25073		0.757412		-0.637129
4.74967		0.749955		-0.502016
4.74763		0.499895		-0.252154
4.4968		0.749856		-0.254783
4.75136		0.750159		-0.752066
4.24572		0.74993		-0.258996
4.49989		0.750238		-0.504786
4.75151		0.500146		-0.752492
4.75126		0.250084		-0.752437
4.74961		0.250003		-0.502134
4.74771		0.249998		-0.252108
4.49684		0.500037		-0.255066
3.99432		0.500156		-0.26429
3.99459		0.749574		-0.263574
3.99371		0.250624		-0.264575
3.99978		0.250186		-0.513928
4.00548		0.249912		-0.763854
4.24615		0.500131		-0.259131
4.24954		0.25004		-0.509007
4.49659		0.250192		-0.255151
3.23998		0.251902		-0.288372
3.24135		0.751607		-0.28838
3.24067		0.501748		-0.288455
3.49952		0.251359		-0.529054
3.75668		0.2506		-0.771114
2.98905		0.252474		-0.298435
3.00926		0.252393		-0.798369
2.99933		0.252468		-0.548143
2.98978		0.502284		-0.298364
2.9904		0.752134		-0.298054
3.25839		0.251645		-0.788409
3.24988		0.501832		-0.538294
3.50757		0.251151		-0.779119
2.73992		1.0025		-0.308604
2.48947		1.00307		-0.320249
2.75095		1.00312		-0.558518
3.00043		0.752426		-0.547746
3.01046		0.752665		-0.797864
3.00978		0.502547		-0.798278
2.73958		0.752654		-0.309054
2.74984		0.503119		-0.559392
2.48899		0.753285		-0.320698
2.76049		0.503366		-0.809624
2.5004		0.7538		-0.570691
2.7612		0.75352		-0.809176
4.25374		0.24992		-0.759434
4.50256		0.250097		-0.755507
4.25033		0.500174		-0.509008
3.5082		0.501375		-0.779112
3.25045		0.751817		-0.538037
3.25936		0.752058		-0.78809
3.50827		0.751582		-0.77909
3.75049		0.750674		-0.521178
3.75736		0.500877		-0.771058
4.00592		0.750674		-0.764262
4.00022		0.750104		-0.51379
4.00577		0.500348		-0.764289
3.49114		0.251441		-0.279304
3.74277		0.500635		-0.271283
3.74956		0.25077		-0.520961
3.49223		0.75099		-0.279412
3.7432		0.750302		-0.271244
3.75015		0.500735		-0.521022
2.25301		1.75443		-0.58003
2.49137		1.75301		-0.318333
2.24065		1.50367		-0.330785
2.75302		1.75312		-0.556658
2.74139		1.75236		-0.306651
2.49071		1.503		-0.319007
4.25408		0.500305		-0.759491
4.25003		0.750194		-0.508751
4.50295		0.750452		-0.755387
2.74077		1.50236		-0.307415
2.49006		1.25301		-0.319661
2.75168		1.25311		-0.558012
0.498957		0.260029		-0.683264
0.265886		0.761251		-0.948152
0.23381		0.260654		-0.448735
0.734961		0.508834		-0.417574
0.750686		0.759147		-0.667221
2.51401		1.50456		-0.819
1.24902		0.25741		-0.637872
2.49936		0.253808		-0.571269
2.26256		0.754909		-0.832864
1.48598		0.506272		-0.373167
1.73565		0.255601		-0.359437
2.23712		0.254278		-0.333351
1.7639		0.756206		-0.858834
1.2641		0.507682		-0.887539
1.50068		0.756582		-0.622762
4.74967		0.499959		-0.502177
4.24535		0.250377		-0.259258
3.24937		0.251837		-0.538336
2.75034		0.753038		-0.559012
4.49956		0.250092		-0.505144
3.25903		0.501794		-0.78834
3.75731		0.751174		-0.77126
3.49161		0.501189		-0.279381
2.50302		1.75378		-0.568327
4.74806		0.749799		-0.252165
2.26348		1.2552		-0.831552
2.24134		1.75367		-0.330034
2.51119		0.504059		-0.821305
3.74231		0.250999		-0.271236
0.514875		0.510352		-0.933014
4.25432		0.75061		-0.759297
2.73904		0.502869		-0.309342
2.74024		1.25239		-0.308074
2.75237		1.5031		-0.557384
3.50039		0.751269		-0.529124
4.50264		0.500292		-0.755713
CELLS	2304	11520
4	0	117	429	398
4	429	430	106	437
4	117	28	430	434
4	398	434	437	102
4	429	117	430	437
4	398	437	434	117
4	430	434	437	117
4	429	117	437	398
4	106	432	431	439
4	431	356	26	215
4	432	93	356	355
4	439	355	215	57
4	431	432	356	215
4	439	215	355	432
4	356	355	215	432
4	431	432	215	439
4	28	120	433	435
4	433	353	93	352
4	120	12	353	346
4	435	346	352	92
4	433	120	353	352
4	435	352	346	120
4	353	346	352	120
4	433	120	352	435
4	102	436	438	401
4	438	354	57	218
4	436	92	354	351
4	401	351	218	27
4	438	436	354	218
4	401	218	351	436
4	354	351	218	436
4	438	436	218	401
4	106	430	432	439
4	432	433	93	355
4	430	28	433	589
4	439	589	355	57
4	432	430	433	355
4	439	355	589	430
4	433	589	355	430
4	432	430	355	439
4	102	438	436	434
4	436	354	92	435
4	438	57	354	589
4	434	589	435	28
4	436	438	354	435
4	434	435	589	438
4	354	589	435	438
4	436	438	435	434
4	93	352	355	433
4	355	354	57	589
4	352	92	354	435
4	433	435	589	28
4	355	352	354	589
4	433	589	435	352
4	354	435	589	352
4	355	352	589	433
4	106	430	439	437
4	439	589	57	438
4	430	28	589	434
4	437	434	438	102
4	439	430	589	438
4	437	438	434	430
4	589	434	438	430
4	439	430	438	437
4	27	211	210	401
4	210	209	54	440
4	211	55	209	400
4	401	400	440	102
4	210	211	209	440
4	401	440	400	211
4	209	400	440	211
4	210	211	440	401
4	54	208	207	442
4	207	206	15	292
4	208	53	206	293
4	442	293	292	78
4	207	208	206	292
4	442	292	293	208
4	206	293	292	208
4	207	208	292	442
4	55	205	204	399
4	204	203	53	294
4	205	14	203	295
4	399	295	294	79
4	204	205	203	294
4	399	294	295	205
4	203	295	294	205
4	204	205	294	399
4	102	397	441	398
4	441	290	78	289
4	397	79	290	291
4	398	291	289	0
4	441	397	290	289
4	398	289	291	397
4	290	291	289	397
4	441	397	289	398
4	54	209	208	442
4	208	204	53	293
4	209	55	204	590
4	442	590	293	78
4	208	209	204	293
4	442	293	590	209
4	204	590	293	209
4	208	209	293	442
4	102	441	397	400
4	397	290	79	399
4	441	78	290	590
4	400	590	399	55
4	397	441	290	399
4	400	399	590	441
4	290	590	399	441
4	397	441	399	400
4	53	294	293	204
4	293	290	78	590
4	294	79	290	399
4	204	399	590	55
4	293	294	290	590
4	204	590	399	294
4	290	399	590	294
4	293	294	590	204
4	54	209	442	440
4	442	590	78	441
4	209	55	590	400
4	440	400	441	102
4	442	209	590	441
4	440	441	400	209
4	590	400	441	209
4	442	209	441	440
4	27	351	350	401
4	350	349	91	403
4	351	92	349	436
4	401	436	403	102
4	350	351	349	403
4	401	403	436	351
4	349	436	403	351
4	350	351	403	401
4	91	348	347	404
4	347	129	13	128
4	348	32	129	130
4	404	130	128	31
4	347	348	129	128
4	404	128	130	348
4	129	130	128	348
4	347	348	128	404
4	92	346	345	435
4	345	132	32	131
4	346	12	132	120
4	435	120	131	28
4	345	346	132	131
4	435	131	120	346
4	132	120	131	346
4	345	346	131	435
4	102	434	402	398
4	402	127	31	126
4	434	28	127	117
4	398	117	126	0
4	402	434	127	126
4	398	126	117	434
4	127	117	126	434
4	402	434	126	398
4	91	349	348	404
4	348	345	32	130
4	349	92	345	591
4	404	591	130	31
4	348	349	345	130
4	404	130	591	349
4	345	591	130	349
4	348	349	130	404
4	102	402	434	436
4	434	127	28	435
4	402	31	127	591
4	436	591	435	92
4	434	402	127	435
4	436	435	591	402
4	127	591	435	402
4	434	402	435	436
4	32	131	130	345
4	130	127	31	591
4	131	28	127	435
4	345	435	591	92
4	130	131	127	591
4	345	591	435	131
4	127	435	591	131
4	130	131	591	345
4	91	349	404	403
4	404	591	31	402
4	349	92	591	436
4	403	436	402	102
4	404	349	591	402
4	403	402	436	349
4	591	436	402	349
4	404	349	402	403
4	0	119	429	117
4	429	443	106	430
4	119	30	443	118
4	117	118	430	28
4	429	119	443	430
4	117	430	118	119
4	443	118	430	119
4	429	119	430	117
4	106	445	431	432
4	431	444	26	356
4	445	107	444	449
4	432	449	356	93
4	431	445	444	356
4	432	356	449	445
4	444	449	356	445
4	431	445	356	432
4	30	125	446	123
4	446	447	107	450
4	125	1	447	124
4	123	124	450	29
4	446	125	447	450
4	123	450	124	125
4	447	124	450	125
4	446	125	450	123
4	28	122	433	120
4	433	448	93	353
4	122	29	448	121
4	120	121	353	12
4	433	122	448	353
4	120	353	121	122
4	448	121	353	122
4	433	122	353	120
4	106	443	445	432
4	445	446	107	449
4	443	30	446	592
4	432	592	449	93
4	445	443	446	449
4	432	449	592	443
4	446	592	449	443
4	445	443	449	432
4	28	433	122	118
4	122	448	29	123
4	433	93	448	592
4	118	592	123	30
4	122	433	448	123
4	118	123	592	433
4	448	592	123	433
4	122	433	123	118
4	107	450	449	446
4	449	448	93	592
4	450	29	448	123
4	446	123	592	30
4	449	450	448	592
4	446	592	123	450
4	448	123	592	450
4	449	450	592	446
4	106	443	432	430
4	432	592	93	433
4	443	30	592	118
4	430	118	433	28
4	432	443	592	433
4	430	433	118	443
4	592	118	433	443
4	432	443	433	430
4	0	119	289	429
4	289	296	78	451
4	119	30	296	443
4	429	443	451	106
4	289	119	296	451
4	429	451	443	119
4	296	443	451	119
4	289	119	451	429
4	78	299	292	453
4	292	300	15	212
4	299	80	300	455
4	453	455	212	56
4	292	299	300	212
4	453	212	455	299
4	300	455	212	299
4	292	299	212	453
4	30	125	298	446
4	298	297	80	456
4	125	1	297	447
4	446	447	456	107
4	298	125	297	456
4	446	456	447	125
4	297	447	456	125
4	298	125	456	446
4	106	445	452	431
4	452	454	56	214
4	445	107	454	444
4	431	444	214	26
4	452	445	454	214
4	431	214	444	445
4	454	444	214	445
4	452	445	214	431
4	78	296	299	453
4	299	298	80	455
4	296	30	298	593
4	453	593	455	56
4	299	296	298	455
4	453	455	593	296
4	298	593	455	296
4	299	296	455	453
4	106	452	445	443
4	445	454	107	446
4	452	56	454	593
4	443	593	446	30
4	445	452	454	446
4	443	446	593	452
4	454	593	446	452
4	445	452	446	443
4	80	456	455	298
4	455	454	56	593
4	456	107	454	446
4	298	446	593	30
4	455	456	454	593
4	298	593	446	456
4	454	446	593	456
4	455	456	593	298
4	78	296	453	451
4	453	593	56	452
4	296	30	593	443
4	451	443	452	106
4	453	296	593	452
4	451	452	443	296
4	593	443	452	296
4	453	296	452	451
4	19	458	246	253
4	246	457	65	252
4	458	108	457	462
4	253	462	252	67
4	246	458	457	252
4	253	252	462	458
4	457	462	252	458
4	246	458	252	253
4	65	459	243	248
4	243	406	17	247
4	459	103	406	468
4	248	468	247	66
4	243	459	406	247
4	248	247	468	459
4	406	468	247	459
4	243	459	247	248
4	108	461	460	464
4	460	409	103	469
4	461	2	409	463
4	464	463	469	109
4	460	461	409	469
4	464	469	463	461
4	409	463	469	461
4	460	461	469	464
4	67	465	251	250
4	251	467	66	249
4	465	109	467	466
4	250	466	249	18
4	251	465	467	249
4	250	249	466	465
4	467	466	249	465
4	251	465	249	250
4	65	457	459	248
4	459	460	103	468
4	457	108	460	594
4	248	594	468	66
4	459	457	460	468
4	248	468	594	457
4	460	594	468	457
4	459	457	468	248
4	67	251	465	462
4	465	467	109	464
4	251	66	467	594
4	462	594	464	108
4	465	251	467	464
4	462	464	594	251
4	467	594	464	251
4	465	251	464	462
4	103	469	468	460
4	468	467	66	594
4	469	109	467	464
4	460	464	594	108
4	468	469	467	594
4	460	594	464	469
4	467	464	594	469
4	468	469	594	460
4	65	457	248	252
4	248	594	66	251
4	457	108	594	462
4	252	462	251	67
4	248	457	594	251
4	252	251	462	457
4	594	462	251	457
4	248	457	251	252
4	12	358	121	353
4	121	470	29	448
4	358	94	470	357
4	353	357	448	93
4	121	358	470	448
4	353	448	357	358
4	470	357	448	358
4	121	358	448	353
4	29	472	124	450
4	124	471	1	447
4	472	110	471	476
4	450	476	447	107
4	124	472	471	447
4	450	447	476	472
4	471	476	447	472
4	124	472	447	450
4	94	361	473	360
4	473	474	110	477
4	361	25	474	222
4	360	222	477	59
4	473	361	474	477
4	360	477	222	361
4	474	222	477	361
4	473	361	477	360
4	93	359	449	356
4	449	475	107	444
4	359	59	475	225
4	356	225	444	26
4	449	359	475	444
4	356	444	225	359
4	475	225	444	359
4	449	359	444	356
4	29	470	472	450
4	472	473	110	476
4	470	94	473	595
4	450	595	476	107
4	472	470	473	476
4	450	476	595	470
4	473	595	476	470
4	472	470	476	450
4	93	449	359	357
4	359	475	59	360
4	449	107	475	595
4	357	595	360	94
4	359	449	475	360
4	357	360	595	449
4	475	595	360	449
4	359	449	360	357
4	110	477	476	473
4	476	475	107	595
4	477	59	475	360
4	473	360	595	94
4	476	477	475	595
4	473	595	360	477
4	475	360	595	477
4	476	477	595	473
4	29	470	450	448
4	450	595	107	449
4	470	94	595	357
4	448	357	449	93
4	450	470	595	449
4	448	449	357	470
4	595	357	449	470
4	450	470	449	448
4	10	373	153	368
4	153	478	38	483
4	373	97	478	372
4	368	372	483	96
4	153	373	478	483
4	368	483	372	373
4	478	372	483	373
4	153	373	483	368
4	38	480	148	486
4	148	479	2	487
4	480	111	479	489
4	486	489	487	112
4	148	480	479	487
4	486	487	489	480
4	479	489	487	480
4	148	480	487	486
4	97	376	481	375
4	481	482	111	490
4	376	24	482	257
4	375	257	490	69
4	481	376	482	490
4	375	490	257	376
4	482	257	490	376
4	481	376	490	375
4	96	374	485	371
4	485	488	112	484
4	374	69	488	260
4	371	260	484	25
4	485	374	488	484
4	371	484	260	374
4	488	260	484	374
4	485	374	484	371
4	38	478	480	486
4	480	481	111	489
4	478	97	481	596
4	486	596	489	112
4	480	478	481	489
4	486	489	596	478
4	481	596	489	478
4	480	478	489	486
4	96	485	374	372
4	374	488	69	375
4	485	112	488	596
4	372	596	375	97
4	374	485	488	375
4	372	375	596	485
4	488	596	375	485
4	374	485	375	372
4	111	490	489	481
4	489	488	112	596
4	490	69	488	375
4	481	375	596	97
4	489	490	488	596
4	481	596	375	490
4	488	375	596	490
4	489	490	596	481
4	38	478	486	483
4	486	596	112	485
4	478	97	596	372
4	483	372	485	96
4	486	478	596	485
4	483	485	372	478
4	596	372	485	478
4	486	478	485	483
4	25	232	239	484
4	239	238	63	494
4	232	61	238	491
4	484	491	494	112
4	239	232	238	494
4	484	494	491	232
4	238	491	494	232
4	239	232	494	484
4	63	237	236	496
4	236	235	19	458
4	237	62	235	498
4	496	498	458	108
4	236	237	235	458
4	496	458	498	237
4	235	498	458	237
4	236	237	458	496
4	61	229	234	492
4	234	233	62	499
4	229	16	233	308
4	492	308	499	82
4	234	229	233	499
4	492	499	308	229
4	233	308	499	229
4	234	229	499	492
4	112	493	495	487
4	495	497	108	461
4	493	82	497	306
4	487	306	461	2
4	495	493	497	461
4	487	461	306	493
4	497	306	461	493
4	495	493	461	487
4	63	238	237	496
4	237	234	62	498
4	238	61	234	597
4	496	597	498	108
4	237	238	234	498
4	496	498	597	238
4	234	597	498	238
4	237	238	498	496
4	112	495	493	491
4	493	497	82	492
4	495	108	497	597
4	491	597	492	61
4	493	495	497	492
4	491	492	597	495
4	497	597	492	495
4	493	495	492	491
4	62	499	498	234
4	498	497	108	597
4	499	82	497	492
4	234	492	597	61
4	498	499	497	597
4	234	597	492	499
4	497	492	597	499
4	498	499	597	234
4	63	238	496	494
4	496	597	108	495
4	238	61	597	491
4	494	491	495	112
4	496	238	597	495
4	494	495	491	238
4	597	491	495	238
4	496	238	495	494
4	12	358	135	121
4	135	500	33	136
4	358	94	500	470
4	121	470	136	29
4	135	358	500	136
4	121	136	470	358
4	500	470	136	358
4	135	358	136	121
4	33	501	138	137
4	138	487	2	139
4	501	112	487	504
4	137	504	139	34
4	138	501	487	139
4	137	139	504	501
4	487	504	139	501
4	138	501	139	137
4	94	361	502	473
4	502	484	112	505
4	361	25	484	474
4	473	474	505	110
4	502	361	484	505
4	473	505	474	361
4	484	474	505	361
4	502	361	505	473
4	29	472	133	124
4	133	503	34	134
4	472	110	503	471
4	124	471	134	1
4	133	472	503	134
4	124	134	471	472
4	503	471	134	472
4	133	472	134	124
4	33	500	501	137
4	501	502	112	504
4	500	94	502	598
4	137	598	504	34
4	501	500	502	504
4	137	504	598	500
4	502	598	504	500
4	501	500	504	137
4	29	133	472	470
4	472	503	110	473
4	133	34	503	598
4	470	598	473	94
4	472	133	503	473
4	470	473	598	133
4	503	598	473	133
4	472	133	473	470
4	112	505	504	502
4	504	503	34	598
4	505	110	503	473
4	502	473	598	94
4	504	505	503	598
4	502	598	473	505
4	503	473	598	505
4	504	505	598	502
4	33	500	137	136
4	137	598	34	133
4	500	94	598	470
4	136	470	133	29
4	137	500	598	133
4	136	133	470	500
4	598	470	133	500
4	137	500	133	136
4	2	487	138	141
4	138	501	33	140
4	487	112	501	506
4	141	506	140	36
4	138	487	501	140
4	141	140	506	487
4	501	506	140	487
4	138	487	140	141
4	33	500	135	143
4	135	358	12	142
4	500	94	358	364
4	143	364	142	35
4	135	500	358	142
4	143	142	364	500
4	358	364	142	500
4	135	500	142	143
4	112	484	502	507
4	502	361	94	365
4	484	25	361	366
4	507	366	365	95
4	502	484	361	365
4	507	365	366	484
4	361	366	365	484
4	502	484	365	507
4	36	508	144	146
4	144	362	35	145
4	508	95	362	363
4	146	363	145	11
4	144	508	362	145
4	146	145	363	508
4	362	363	145	508
4	144	508	145	146
4	33	501	500	143
4	500	502	94	364
4	501	112	502	599
4	143	599	364	35
4	500	501	502	364
4	143	364	599	501
4	502	599	364	501
4	500	501	364	143
4	36	144	508	506
4	508	362	95	507
4	144	35	362	599
4	506	599	507	112
4	508	144	362	507
4	506	507	599	144
4	362	599	507	144
4	508	144	507	506
4	94	365	364	502
4	364	362	35	599
4	365	95	362	507
4	502	507	599	112
4	364	365	362	599
4	502	599	507	365
4	362	507	599	365
4	364	365	599	502
4	33	501	143	140
4	143	599	35	144
4	501	112	599	506
4	140	506	144	36
4	143	501	599	144
4	140	144	506	501
4	599	506	144	501
4	143	501	144	140
4	11	149	146	363
4	146	150	36	508
4	149	37	150	369
4	363	369	508	95
4	146	149	150	508
4	363	508	369	149
4	150	369	508	149
4	146	149	508	363
4	36	147	141	506
4	141	148	2	487
4	147	38	148	486
4	506	486	487	112
4	141	147	148	487
4	506	487	486	147
4	148	486	487	147
4	141	147	487	506
4	37	152	151	367
4	151	153	38	483
4	152	10	153	368
4	367	368	483	96
4	151	152	153	483
4	367	483	368	152
4	153	368	483	152
4	151	152	483	367
4	95	370	507	366
4	507	485	112	484
4	370	96	485	371
4	366	371	484	25
4	507	370	485	484
4	366	484	371	370
4	485	371	484	370
4	507	370	484	366
4	36	150	147	506
4	147	151	38	486
4	150	37	151	600
4	506	600	486	112
4	147	150	151	486
4	506	486	600	150
4	151	600	486	150
4	147	150	486	506
4	95	507	370	369
4	370	485	96	367
4	507	112	485	600
4	369	600	367	37
4	370	507	485	367
4	369	367	600	507
4	485	600	367	507
4	370	507	367	369
4	38	483	486	151
4	486	485	112	600
4	483	96	485	367
4	151	367	600	37
4	486	483	485	600
4	151	600	367	483
4	485	367	600	483
4	486	483	600	151
4	36	150	506	508
4	506	600	112	507
4	150	37	600	369
4	508	369	507	95
4	506	150	600	507
4	508	507	369	150
4	600	369	507	150
4	506	150	507	508
4	15	219	305	226
4	305	509	81	310
4	219	58	509	227
4	226	227	310	60
4	305	219	509	310
4	226	310	227	219
4	509	227	310	219
4	305	219	310	226
4	81	510	302	307
4	302	487	2	306
4	510	112	487	493
4	307	493	306	82
4	302	510	487	306
4	307	306	493	510
4	487	493	306	510
4	302	510	306	307
4	58	221	511	231
4	511	484	112	491
4	221	25	484	232
4	231	232	491	61
4	511	221	484	491
4	231	491	232	221
4	484	232	491	221
4	511	221	491	231
4	60	230	309	228
4	309	492	82	308
4	230	61	492	229
4	228	229	308	16
4	309	230	492	308
4	228	308	229	230
4	492	229	308	230
4	309	230	308	228
4	81	509	510	307
4	510	511	112	493
4	509	58	511	601
4	307	601	493	82
4	510	509	511	493
4	307	493	601	509
4	511	601	493	509
4	510	509	493	307
4	60	309	230	227
4	230	492	61	231
4	309	82	492	601
4	227	601	231	58
4	230	309	492	231
4	227	231	601	309
4	492	601	231	309
4	230	309	231	227
4	112	491	493	511
4	493	492	82	601
4	491	61	492	231
4	511	231	601	58
4	493	491	492	601
4	511	601	231	491
4	492	231	601	491
4	493	491	601	511
4	81	509	307	310
4	307	601	82	309
4	509	58	601	227
4	310	227	309	60
4	307	509	601	309
4	310	309	227	509
4	601	227	309	509
4	307	509	309	310
4	15	300	219	212
4	219	512	58	220
4	300	80	512	455
4	212	455	220	56
4	219	300	512	220
4	212	220	455	300
4	512	455	220	300
4	219	300	220	212
4	58	513	221	223
4	221	474	25	222
4	513	110	474	477
4	223	477	222	59
4	221	513	474	222
4	223	222	477	513
4	474	477	222	513
4	221	513	222	223
4	80	297	514	456
4	514	471	110	476
4	297	1	471	447
4	456	447	476	107
4	514	297	471	476
4	456	476	447	297
4	471	447	476	297
4	514	297	476	456
4	56	454	224	214
4	224	475	59	225
4	454	107	475	444
4	214	444	225	26
4	224	454	475	225
4	214	225	444	454
4	475	444	225	454
4	224	454	225	214
4	58	512	513	223
4	513	514	110	477
4	512	80	514	602
4	223	602	477	59
4	513	512	514	477
4	223	477	602	512
4	514	602	477	512
4	513	512	477	223
4	56	224	454	455
4	454	475	107	456
4	224	59	475	602
4	455	602	456	80
4	454	224	475	456
4	455	456	602	224
4	475	602	456	224
4	454	224	456	455
4	110	476	477	514
4	477	475	59	602
4	476	107	475	456
4	514	456	602	80
4	477	476	475	602
4	514	602	456	476
4	475	456	602	476
4	477	476	602	514
4	58	512	223	220
4	223	602	59	224
4	512	80	602	455
4	220	455	224	56
4	223	512	602	224
4	220	224	455	512
4	602	455	224	512
4	223	512	224	220
4	15	300	305	219
4	305	304	81	509
4	300	80	304	512
4	219	512	509	58
4	305	300	304	509
4	219	509	512	300
4	304	512	509	300
4	305	300	509	219
4	81	303	302	510
4	302	139	2	487
4	303	34	139	504
4	510	504	487	112
4	302	303	139	487
4	510	487	504	303
4	139	504	487	303
4	302	303	487	510
4	80	297	301	514
4	301	134	34	503
4	297	1	134	471
4	514	471	503	110
4	301	297	134	503
4	514	503	471	297
4	134	471	503	297
4	301	297	503	514
4	58	513	511	221
4	511	505	112	484
4	513	110	505	474
4	221	474	484	25
4	511	513	505	484
4	221	484	474	513
4	505	474	484	513
4	511	513	484	221
4	81	304	303	510
4	303	301	34	504
4	304	80	301	603
4	510	603	504	112
4	303	304	301	504
4	510	504	603	304
4	301	603	504	304
4	303	304	504	510
4	58	511	513	512
4	513	505	110	514
4	511	112	505	603
4	512	603	514	80
4	513	511	505	514
4	512	514	603	511
4	505	603	514	511
4	513	511	514	512
4	34	503	504	301
4	504	505	112	603
4	503	110	505	514
4	301	514	603	80
4	504	503	505	603
4	301	603	514	503
4	505	514	603	503
4	504	503	603	301
4	81	304	510	509
4	510	603	112	511
4	304	80	603	512
4	509	512	511	58
4	510	304	603	511
4	509	511	512	304
4	603	512	511	304
4	510	304	511	509
4	21	337	425	282
4	425	515	105	428
4	337	89	515	518
4	282	518	428	76
4	425	337	515	428
4	282	428	518	337
4	515	518	428	337
4	425	337	428	282
4	105	516	422	426
4	422	195	8	393
4	516	50	195	524
4	426	524	393	101
4	422	516	195	393
4	426	393	524	516
4	195	524	393	516
4	422	516	393	426
4	89	335	517	520
4	517	190	50	525
4	335	6	190	519
4	520	519	525	113
4	517	335	190	525
4	520	525	519	335
4	190	519	525	335
4	517	335	525	520
4	76	521	427	284
4	427	523	101	396
4	521	113	523	522
4	284	522	396	22
4	427	521	523	396
4	284	396	522	521
4	523	522	396	521
4	427	521	396	284
4	105	515	516	426
4	516	517	50	524
4	515	89	517	604
4	426	604	524	101
4	516	515	517	524
4	426	524	604	515
4	517	604	524	515
4	516	515	524	426
4	76	427	521	518
4	521	523	113	520
4	427	101	523	604
4	518	604	520	89
4	521	427	523	520
4	518	520	604	427
4	523	604	520	427
4	521	427	520	518
4	50	525	524	517
4	524	523	101	604
4	525	113	523	520
4	517	520	604	89
4	524	525	523	604
4	517	604	520	525
4	523	520	604	525
4	524	525	604	517
4	105	515	426	428
4	426	604	101	427
4	515	89	604	518
4	428	518	427	76
4	426	515	604	427
4	428	427	518	515
4	604	518	427	515
4	426	515	427	428
4	6	527	183	190
4	183	526	48	189
4	527	114	526	531
4	190	531	189	50
4	183	527	526	189
4	190	189	531	527
4	526	531	189	527
4	183	527	189	190
4	48	528	188	192
4	188	383	9	191
4	528	99	383	389
4	192	389	191	49
4	188	528	383	191
4	192	191	389	528
4	383	389	191	528
4	188	528	191	192
4	114	530	529	532
4	529	386	99	390
4	530	23	386	391
4	532	391	390	100
4	529	530	386	390
4	532	390	391	530
4	386	391	390	530
4	529	530	390	532
4	50	533	193	195
4	193	387	49	194
4	533	100	387	388
4	195	388	194	8
4	193	533	387	194
4	195	194	388	533
4	387	388	194	533
4	193	533	194	195
4	48	526	528	192
4	528	529	99	389
4	526	114	529	605
4	192	605	389	49
4	528	526	529	389
4	192	389	605	526
4	529	605	389	526
4	528	526	389	192
4	50	193	533	531
4	533	387	100	532
4	193	49	387	605
4	531	605	532	114
4	533	193	387	532
4	531	532	605	193
4	387	605	532	193
4	533	193	532	531
4	99	390	389	529
4	389	387	49	605
4	390	100	387	532
4	529	532	605	114
4	389	390	387	605
4	529	605	532	390
4	387	532	605	390
4	389	390	605	529
4	48	526	192	189
4	192	605	49	193
4	526	114	605	531
4	189	531	193	50
4	192	526	605	193
4	189	193	531	526
4	605	531	193	526
4	192	526	193	189
4	10	378	156	373
4	156	534	39	539
4	378	98	534	377
4	373	377	539	97
4	156	378	534	539
4	373	539	377	378
4	534	377	539	378
4	156	378	539	373
4	39	536	159	542
4	159	535	5	543
4	536	115	535	545
4	542	545	543	116
4	159	536	535	543
4	542	543	545	536
4	535	545	543	536
4	159	536	543	542
4	98	381	537	380
4	537	538	115	546
4	381	23	538	264
4	380	264	546	71
4	537	381	538	546
4	380	546	264	381
4	538	264	546	381
4	537	381	546	380
4	97	379	541	376
4	541	544	116	540
4	379	71	544	267
4	376	267	540	24
4	541	379	544	540
4	376	540	267	379
4	544	267	540	379
4	541	379	540	376
4	39	534	536	542
4	536	537	115	545
4	534	98	537	606
4	542	606	545	116
4	536	534	537	545
4	542	545	606	534
4	537	606	545	534
4	536	534	545	542
4	97	541	379	377
4	379	544	71	380
4	541	116	544	606
4	377	606	380	98
4	379	541	544	380
4	377	380	606	541
4	544	606	380	541
4	379	541	380	377
4	115	546	545	537
4	545	544	116	606
4	546	71	544	380
4	537	380	606	98
4	545	546	544	606
4	537	606	380	546
4	544	380	606	546
4	545	546	606	537
4	39	534	542	539
4	542	606	116	541
4	534	98	606	377
4	539	377	541	97
4	542	534	606	541
4	539	541	377	534
4	606	377	541	534
4	542	534	541	539
4	5	324	160	543
4	160	547	40	553
4	324	87	547	550
4	543	550	553	116
4	160	324	547	553
4	543	553	550	324
4	547	550	553	324
4	160	324	553	543
4	40	548	155	555
4	155	461	2	479
4	548	108	461	557
4	555	557	479	111
4	155	548	461	479
4	555	479	557	548
4	461	557	479	548
4	155	548	479	555
4	87	329	549	551
4	549	458	108	558
4	329	19	458	254
4	551	254	558	68
4	549	329	458	558
4	551	558	254	329
4	458	254	558	329
4	549	329	558	551
4	116	552	554	540
4	554	556	111	482
4	552	68	556	256
4	540	256	482	24
4	554	552	556	482
4	540	482	256	552
4	556	256	482	552
4	554	552	482	540
4	40	547	548	555
4	548	549	108	557
4	547	87	549	607
4	555	607	557	111
4	548	547	549	557
4	555	557	607	547
4	549	607	557	547
4	548	547	557	555
4	116	554	552	550
4	552	556	68	551
4	554	111	556	607
4	550	607	551	87
4	552	554	556	551
4	550	551	607	554
4	556	607	551	554
4	552	554	551	550
4	108	558	557	549
4	557	556	111	607
4	558	68	556	551
4	549	551	607	87
4	557	558	556	607
4	549	607	551	558
4	556	551	607	558
4	557	558	607	549
4	40	547	555	553
4	555	607	111	554
4	547	87	607	550
4	553	550	554	116
4	555	547	607	554
4	553	554	550	547
4	607	550	554	547
4	555	547	554	553
4	23	288	391	530
4	391	394	100	532
4	288	77	394	559
4	530	559	532	114
4	391	288	394	532
4	530	532	559	288
4	394	559	532	288
4	391	288	532	530
4	100	392	388	533
4	388	393	8	195
4	392	101	393	524
4	533	524	195	50
4	388	392	393	195
4	533	195	524	392
4	393	524	195	392
4	388	392	195	533
4	77	285	395	560
4	395	396	101	523
4	285	22	396	522
4	560	522	523	113
4	395	285	396	523
4	560	523	522	285
4	396	522	523	285
4	395	285	523	560
4	114	561	531	527
4	531	525	50	190
4	561	113	525	519
4	527	519	190	6
4	531	561	525	190
4	527	190	519	561
4	525	519	190	561
4	531	561	190	527
4	100	394	392	533
4	392	395	101	524
4	394	77	395	608
4	533	608	524	50
4	392	394	395	524
4	533	524	608	394
4	395	608	524	394
4	392	394	524	533
4	114	531	561	559
4	561	525	113	560
4	531	50	525	608
4	559	608	560	77
4	561	531	525	560
4	559	560	608	531
4	525	608	560	531
4	561	531	560	559
4	101	523	524	395
4	524	525	50	608
4	523	113	525	560
4	395	560	608	77
4	524	523	525	608
4	395	608	560	523
4	525	560	608	523
4	524	523	608	395
4	100	394	533	532
4	533	608	50	531
4	394	77	608	559
4	532	559	531	114
4	533	394	608	531
4	532	531	559	394
4	608	559	531	394
4	533	394	531	532
4	23	263	538	264
4	538	562	115	546
4	263	70	562	265
4	264	265	546	71
4	538	263	562	546
4	264	546	265	263
4	562	265	546	263
4	538	263	546	264
4	115	563	535	545
4	535	324	5	543
4	563	87	324	550
4	545	550	543	116
4	535	563	324	543
4	545	543	550	563
4	324	550	543	563
4	535	563	543	545
4	70	261	564	262
4	564	329	87	551
4	261	19	329	254
4	262	254	551	68
4	564	261	329	551
4	262	551	254	261
4	329	254	551	261
4	564	261	551	262
4	71	266	544	267
4	544	552	116	540
4	266	68	552	256
4	267	256	540	24
4	544	266	552	540
4	267	540	256	266
4	552	256	540	266
4	544	266	540	267
4	115	562	563	545
4	563	564	87	550
4	562	70	564	609
4	545	609	550	116
4	563	562	564	550
4	545	550	609	562
4	564	609	550	562
4	563	562	550	545
4	71	544	266	265
4	266	552	68	262
4	544	116	552	609
4	265	609	262	70
4	266	544	552	262
4	265	262	609	544
4	552	609	262	544
4	266	544	262	265
4	87	551	550	564
4	550	552	116	609
4	551	68	552	262
4	564	262	609	70
4	550	551	552	609
4	564	609	262	551
4	552	262	609	551
4	550	551	609	564
4	115	562	545	546
4	545	609	116	544
4	562	70	609	265
4	546	265	544	71
4	545	562	609	544
4	546	544	265	562
4	609	265	544	562
4	545	562	544	546
4	19	261	328	268
4	328	565	86	334
4	261	70	565	269
4	268	269	334	72
4	328	261	565	334
4	268	334	269	261
4	565	269	334	261
4	328	261	334	268
4	86	566	325	331
4	325	527	6	330
4	566	114	527	569
4	331	569	330	88
4	325	566	527	330
4	331	330	569	566
4	527	569	330	566
4	325	566	330	331
4	70	263	567	273
4	567	530	114	570
4	263	23	530	274
4	273	274	570	73
4	567	263	530	570
4	273	570	274	263
4	530	274	570	263
4	567	263	570	273
4	72	272	333	270
4	333	568	88	332
4	272	73	568	271
4	270	271	332	20
4	333	272	568	332
4	270	332	271	272
4	568	271	332	272
4	333	272	332	270
4	86	565	566	331
4	566	567	114	569
4	565	70	567	610
4	331	610	569	88
4	566	565	567	569
4	331	569	610	565
4	567	610	569	565
4	566	565	569	331
4	72	333	272	269
4	272	568	73	273
4	333	88	568	610
4	269	610	273	70
4	272	333	568	273
4	269	273	610	333
4	568	610	273	333
4	272	333	273	269
4	114	570	569	567
4	569	568	88	610
4	570	73	568	273
4	567	273	610	70
4	569	570	568	610
4	567	610	273	570
4	568	273	610	570
4	569	570	610	567
4	86	565	331	334
4	331	610	88	333
4	565	70	610	269
4	334	269	333	72
4	331	565	610	333
4	334	333	269	565
4	610	269	333	565
4	331	565	333	334
4	10	378	177	156
4	177	571	45	178
4	378	98	571	534
4	156	534	178	39
4	177	378	571	178
4	156	178	534	378
4	571	534	178	378
4	177	378	178	156
4	45	572	180	179
4	180	527	6	181
4	572	114	527	575
4	179	575	181	46
4	180	572	527	181
4	179	181	575	572
4	527	575	181	572
4	180	572	181	179
4	98	381	573	537
4	573	530	114	576
4	381	23	530	538
4	537	538	576	115
4	573	381	530	576
4	537	576	538	381
4	530	538	576	381
4	573	381	576	537
4	39	536	175	159
4	175	574	46	176
4	536	115	574	535
4	159	535	176	5
4	175	536	574	176
4	159	176	535	536
4	574	535	176	536
4	175	536	176	159
4	45	571	572	179
4	572	573	114	575
4	571	98	573	611
4	179	611	575	46
4	572	571	573	575
4	179	575	611	571
4	573	611	575	571
4	572	571	575	179
4	39	175	536	534
4	536	574	115	537
4	175	46	574	611
4	534	611	537	98
4	536	175	574	537
4	534	537	611	175
4	574	611	537	175
4	536	175	537	534
4	114	576	575	573
4	575	574	46	611
4	576	115	574	537
4	573	537	611	98
4	575	576	574	611
4	573	611	537	576
4	574	537	611	576
4	575	576	611	573
4	45	571	179	178
4	179	611	46	175
4	571	98	611	534
4	178	534	175	39
4	179	571	611	175
4	178	175	534	571
4	611	534	175	571
4	179	571	175	178
4	17	406	316	247
4	316	577	83	322
4	406	103	577	468
4	247	468	322	66
4	316	406	577	322
4	247	322	468	406
4	577	468	322	406
4	316	406	322	247
4	83	578	313	319
4	313	164	4	318
4	578	41	164	581
4	319	581	318	85
4	313	578	164	318
4	319	318	581	578
4	164	581	318	578
4	313	578	318	319
4	103	409	579	469
4	579	161	41	582
4	409	2	161	463
4	469	463	582	109
4	579	409	161	582
4	469	582	463	409
4	161	463	582	409
4	579	409	582	469
4	66	467	321	249
4	321	580	85	320
4	467	109	580	466
4	249	466	320	18
4	321	467	580	320
4	249	320	466	467
4	580	466	320	467
4	321	467	320	249
4	83	577	578	319
4	578	579	41	581
4	577	103	579	612
4	319	612	581	85
4	578	577	579	581
4	319	581	612	577
4	579	612	581	577
4	578	577	581	319
4	66	321	467	468
4	467	580	109	469
4	321	85	580	612
4	468	612	469	103
4	467	321	580	469
4	468	469	612	321
4	580	612	469	321
4	467	321	469	468
4	41	582	581	579
4	581	580	85	612
4	582	109	580	469
4	579	469	612	103
4	581	582	580	612
4	579	612	469	582
4	580	469	612	582
4	581	582	612	579
4	83	577	319	322
4	319	612	85	321
4	577	103	612	468
4	322	468	321	66
4	319	577	612	321
4	322	321	468	577
4	612	468	321	577
4	319	577	321	322
4	21	344	425	337
4	425	424	105	515
4	344	90	424	343
4	337	343	515	89
4	425	344	424	515
4	337	515	343	344
4	424	343	515	344
4	425	344	515	337
4	105	423	422	516
4	422	198	8	195
4	423	51	198	199
4	516	199	195	50
4	422	423	198	195
4	516	195	199	423
4	198	199	195	423
4	422	423	195	516
4	90	341	421	342
4	421	201	51	200
4	341	7	201	202
4	342	202	200	52
4	421	341	201	200
4	342	200	202	341
4	201	202	200	341
4	421	341	200	342
4	89	340	517	335
4	517	196	50	190
4	340	52	196	197
4	335	197	190	6
4	517	340	196	190
4	335	190	197	340
4	196	197	190	340
4	517	340	190	335
4	105	424	423	516
4	423	421	51	199
4	424	90	421	613
4	516	613	199	50
4	423	424	421	199
4	516	199	613	424
4	421	613	199	424
4	423	424	199	516
4	89	517	340	343
4	340	196	52	342
4	517	50	196	613
4	343	613	342	90
4	340	517	196	342
4	343	342	613	517
4	196	613	342	517
4	340	517	342	343
4	51	200	199	421
4	199	196	50	613
4	200	52	196	342
4	421	342	613	90
4	199	200	196	613
4	421	613	342	200
4	196	342	613	200
4	199	200	613	421
4	105	424	516	515
4	516	613	50	517
4	424	90	613	343
4	515	343	517	89
4	516	424	613	517
4	515	517	343	424
4	613	343	517	424
4	516	424	517	515
4	19	235	246	458
4	246	245	65	457
4	235	62	245	498
4	458	498	457	108
4	246	235	245	457
4	458	457	498	235
4	245	498	457	235
4	246	235	457	458
4	65	244	243	459
4	243	242	17	406
4	244	64	242	411
4	459	411	406	103
4	243	244	242	406
4	459	406	411	244
4	242	411	406	244
4	243	244	406	459
4	62	233	241	499
4	241	240	64	412
4	233	16	240	308
4	499	308	412	82
4	241	233	240	412
4	499	412	308	233
4	240	308	412	233
4	241	233	412	499
4	108	497	460	461
4	460	410	103	409
4	497	82	410	306
4	461	306	409	2
4	460	497	410	409
4	461	409	306	497
4	410	306	409	497
4	460	497	409	461
4	65	245	244	459
4	244	241	64	411
4	245	62	241	614
4	459	614	411	103
4	244	245	241	411
4	459	411	614	245
4	241	614	411	245
4	244	245	411	459
4	108	460	497	498
4	497	410	82	499
4	460	103	410	614
4	498	614	499	62
4	497	460	410	499
4	498	499	614	460
4	410	614	499	460
4	497	460	499	498
4	64	412	411	241
4	411	410	103	614
4	412	82	410	499
4	241	499	614	62
4	411	412	410	614
4	241	614	499	412
4	410	499	614	412
4	411	412	614	241
4	65	245	459	457
4	459	614	103	460
4	245	62	614	498
4	457	498	460	108
4	459	245	614	460
4	457	460	498	245
4	614	498	460	245
4	459	245	460	457
4	17	317	316	406
4	316	315	83	577
4	317	84	315	407
4	406	407	577	103
4	316	317	315	577
4	406	577	407	317
4	315	407	577	317
4	316	317	577	406
4	83	314	313	578
4	313	165	4	164
4	314	42	165	166
4	578	166	164	41
4	313	314	165	164
4	578	164	166	314
4	165	166	164	314
4	313	314	164	578
4	84	312	311	405
4	311	168	42	167
4	312	3	168	169
4	405	169	167	43
4	311	312	168	167
4	405	167	169	312
4	168	169	167	312
4	311	312	167	405
4	103	408	579	409
4	579	162	41	161
4	408	43	162	163
4	409	163	161	2
4	579	408	162	161
4	409	161	163	408
4	162	163	161	408
4	579	408	161	409
4	83	315	314	578
4	314	311	42	166
4	315	84	311	615
4	578	615	166	41
4	314	315	311	166
4	578	166	615	315
4	311	615	166	315
4	314	315	166	578
4	103	579	408	407
4	408	162	43	405
4	579	41	162	615
4	407	615	405	84
4	408	579	162	405
4	407	405	615	579
4	162	615	405	579
4	408	579	405	407
4	42	167	166	311
4	166	162	41	615
4	167	43	162	405
4	311	405	615	84
4	166	167	162	615
4	311	615	405	167
4	162	405	615	167
4	166	167	615	311
4	83	315	578	577
4	578	615	41	579
4	315	84	615	407
4	577	407	579	103
4	578	315	615	579
4	577	579	407	315
4	615	407	579	315
4	578	315	579	577
4	25	484	239	260
4	239	494	63	259
4	484	112	494	488
4	260	488	259	69
4	239	484	494	259
4	260	259	488	484
4	494	488	259	484
4	239	484	259	260
4	63	496	236	255
4	236	458	19	254
4	496	108	458	558
4	255	558	254	68
4	236	496	458	254
4	255	254	558	496
4	458	558	254	496
4	236	496	254	255
4	112	487	495	489
4	495	461	108	557
4	487	2	461	479
4	489	479	557	111
4	495	487	461	557
4	489	557	479	487
4	461	479	557	487
4	495	487	557	489
4	69	490	258	257
4	258	556	68	256
4	490	111	556	482
4	257	482	256	24
4	258	490	556	256
4	257	256	482	490
4	556	482	256	490
4	258	490	256	257
4	63	494	496	255
4	496	495	108	558
4	494	112	495	616
4	255	616	558	68
4	496	494	495	558
4	255	558	616	494
4	495	616	558	494
4	496	494	558	255
4	69	258	490	488
4	490	556	111	489
4	258	68	556	616
4	488	616	489	112
4	490	258	556	489
4	488	489	616	258
4	556	616	489	258
4	490	258	489	488
4	108	557	558	495
4	558	556	68	616
4	557	111	556	489
4	495	489	616	112
4	558	557	556	616
4	495	616	489	557
4	556	489	616	557
4	558	557	616	495
4	63	494	255	259
4	255	616	68	258
4	494	112	616	488
4	259	488	258	69
4	255	494	616	258
4	259	258	488	494
4	616	488	258	494
4	255	494	258	259
4	6	527	180	183
4	180	572	45	182
4	527	114	572	526
4	183	526	182	48
4	180	527	572	182
4	183	182	526	527
4	572	526	182	527
4	180	527	182	183
4	45	571	177	185
4	177	378	10	184
4	571	98	378	384
4	185	384	184	47
4	177	571	378	184
4	185	184	384	571
4	378	384	184	571
4	177	571	184	185
4	114	530	573	529
4	573	381	98	385
4	530	23	381	386
4	529	386	385	99
4	573	530	381	385
4	529	385	386	530
4	381	386	385	530
4	573	530	385	529
4	48	528	186	188
4	186	382	47	187
4	528	99	382	383
4	188	383	187	9
4	186	528	382	187
4	188	187	383	528
4	382	383	187	528
4	186	528	187	188
4	45	572	571	185
4	571	573	98	384
4	572	114	573	617
4	185	617	384	47
4	571	572	573	384
4	185	384	617	572
4	573	617	384	572
4	571	572	384	185
4	48	186	528	526
4	528	382	99	529
4	186	47	382	617
4	526	617	529	114
4	528	186	382	529
4	526	529	617	186
4	382	617	529	186
4	528	186	529	526
4	98	385	384	573
4	384	382	47	617
4	385	99	382	529
4	573	529	617	114
4	384	385	382	617
4	573	617	529	385
4	382	529	617	385
4	384	385	617	573
4	45	572	185	182
4	185	617	47	186
4	572	114	617	526
4	182	526	186	48
4	185	572	617	186
4	182	186	526	572
4	617	526	186	572
4	185	572	186	182
4	27	401	210	218
4	210	440	54	217
4	401	102	440	438
4	218	438	217	57
4	210	401	440	217
4	218	217	438	401
4	440	438	217	401
4	210	401	217	218
4	54	442	207	213
4	207	292	15	212
4	442	78	292	453
4	213	453	212	56
4	207	442	292	212
4	213	212	453	442
4	292	453	212	442
4	207	442	212	213
4	102	398	441	437
4	441	289	78	451
4	398	0	289	429
4	437	429	451	106
4	441	398	289	451
4	437	451	429	398
4	289	429	451	398
4	441	398	451	437
4	57	439	216	215
4	216	452	56	214
4	439	106	452	431
4	215	431	214	26
4	216	439	452	214
4	215	214	431	439
4	452	431	214	439
4	216	439	214	215
4	54	440	442	213
4	442	441	78	453
4	440	102	441	618
4	213	618	453	56
4	442	440	441	453
4	213	453	618	440
4	441	618	453	440
4	442	440	453	213
4	57	216	439	438
4	439	452	106	437
4	216	56	452	618
4	438	618	437	102
4	439	216	452	437
4	438	437	618	216
4	452	618	437	216
4	439	216	437	438
4	78	451	453	441
4	453	452	56	618
4	451	106	452	437
4	441	437	618	102
4	453	451	452	618
4	441	618	437	451
4	452	437	618	451
4	453	451	618	441
4	54	440	213	217
4	213	618	56	216
4	440	102	618	438
4	217	438	216	57
4	213	440	618	216
4	217	216	438	440
4	618	438	216	440
4	213	440	216	217
4	23	274	281	530
4	281	280	75	583
4	274	73	280	570
4	530	570	583	114
4	281	274	280	583
4	530	583	570	274
4	280	570	583	274
4	281	274	583	530
4	75	279	278	585
4	278	277	21	337
4	279	74	277	338
4	585	338	337	89
4	278	279	277	337
4	585	337	338	279
4	277	338	337	279
4	278	279	337	585
4	73	271	276	568
4	276	275	74	339
4	271	20	275	332
4	568	332	339	88
4	276	271	275	339
4	568	339	332	271
4	275	332	339	271
4	276	271	339	568
4	114	569	584	527
4	584	336	89	335
4	569	88	336	330
4	527	330	335	6
4	584	569	336	335
4	527	335	330	569
4	336	330	335	569
4	584	569	335	527
4	75	280	279	585
4	279	276	74	338
4	280	73	276	619
4	585	619	338	89
4	279	280	276	338
4	585	338	619	280
4	276	619	338	280
4	279	280	338	585
4	114	584	569	570
4	569	336	88	568
4	584	89	336	619
4	570	619	568	73
4	569	584	336	568
4	570	568	619	584
4	336	619	568	584
4	569	584	568	570
4	74	339	338	276
4	338	336	89	619
4	339	88	336	568
4	276	568	619	73
4	338	339	336	619
4	276	619	568	339
4	336	568	619	339
4	338	339	619	276
4	75	280	585	583
4	585	619	89	584
4	280	73	619	570
4	583	570	584	114
4	585	280	619	584
4	583	584	570	280
4	619	570	584	280
4	585	280	584	583
4	5	543	160	159
4	160	553	40	158
4	543	116	553	542
4	159	542	158	39
4	160	543	553	158
4	159	158	542	543
4	553	542	158	543
4	160	543	158	159
4	40	555	155	154
4	155	479	2	148
4	555	111	479	480
4	154	480	148	38
4	155	555	479	148
4	154	148	480	555
4	479	480	148	555
4	155	555	148	154
4	116	540	554	541
4	554	482	111	481
4	540	24	482	376
4	541	376	481	97
4	554	540	482	481
4	541	481	376	540
4	482	376	481	540
4	554	540	481	541
4	39	539	157	156
4	157	478	38	153
4	539	97	478	373
4	156	373	153	10
4	157	539	478	153
4	156	153	373	539
4	478	373	153	539
4	157	539	153	156
4	40	553	555	154
4	555	554	111	480
4	553	116	554	620
4	154	620	480	38
4	555	553	554	480
4	154	480	620	553
4	554	620	480	553
4	555	553	480	154
4	39	157	539	542
4	539	478	97	541
4	157	38	478	620
4	542	620	541	116
4	539	157	478	541
4	542	541	620	157
4	478	620	541	157
4	539	157	541	542
4	111	481	480	554
4	480	478	38	620
4	481	97	478	541
4	554	541	620	116
4	480	481	478	620
4	554	620	541	481
4	478	541	620	481
4	480	481	620	554
4	40	553	154	158
4	154	620	38	157
4	553	116	620	542
4	158	542	157	39
4	154	553	620	157
4	158	157	542	553
4	620	542	157	553
4	154	553	157	158
4	4	414	164	174
4	164	586	41	173
4	414	104	586	413
4	174	413	173	44
4	164	414	586	173
4	174	173	413	414
4	586	413	173	414
4	164	414	173	174
4	41	587	161	170
4	161	461	2	155
4	587	108	461	548
4	170	548	155	40
4	161	587	461	155
4	170	155	548	587
4	461	548	155	587
4	161	587	155	170
4	104	417	588	416
4	588	458	108	549
4	417	19	458	329
4	416	329	549	87
4	588	417	458	549
4	416	549	329	417
4	458	329	549	417
4	588	417	549	416
4	44	415	172	171
4	172	547	40	160
4	415	87	547	324
4	171	324	160	5
4	172	415	547	160
4	171	160	324	415
4	547	324	160	415
4	172	415	160	171
4	41	586	587	170
4	587	588	108	548
4	586	104	588	621
4	170	621	548	40
4	587	586	588	548
4	170	548	621	586
4	588	621	548	586
4	587	586	548	170
4	44	172	415	413
4	415	547	87	416
4	172	40	547	621
4	413	621	416	104
4	415	172	547	416
4	413	416	621	172
4	547	621	416	172
4	415	172	416	413
4	108	549	548	588
4	548	547	40	621
4	549	87	547	416
4	588	416	621	104
4	548	549	547	621
4	588	621	416	549
4	547	416	621	549
4	548	549	621	588
4	41	586	170	173
4	170	621	40	172
4	586	104	621	413
4	173	413	172	44
4	170	586	621	172
4	173	172	413	586
4	621	413	172	586
4	170	586	172	173
4	18	250	466	320
4	466	465	109	580
4	250	67	465	420
4	320	420	580	85
4	466	250	465	580
4	320	580	420	250
4	465	420	580	250
4	466	250	580	320
4	109	464	463	582
4	463	461	2	161
4	464	108	461	587
4	582	587	161	41
4	463	464	461	161
4	582	161	587	464
4	461	587	161	464
4	463	464	161	582
4	67	253	462	419
4	462	458	108	588
4	253	19	458	417
4	419	417	588	104
4	462	253	458	588
4	419	588	417	253
4	458	417	588	253
4	462	253	588	419
4	85	418	581	318
4	581	586	41	164
4	418	104	586	414
4	318	414	164	4
4	581	418	586	164
4	318	164	414	418
4	586	414	164	418
4	581	418	164	318
4	109	465	464	582
4	464	462	108	587
4	465	67	462	622
4	582	622	587	41
4	464	465	462	587
4	582	587	622	465
4	462	622	587	465
4	464	465	587	582
4	85	581	418	420
4	418	586	104	419
4	581	41	586	622
4	420	622	419	67
4	418	581	586	419
4	420	419	622	581
4	586	622	419	581
4	418	581	419	420
4	108	588	587	462
4	587	586	41	622
4	588	104	586	419
4	462	419	622	67
4	587	588	586	622
4	462	622	419	588
4	586	419	622	588
4	587	588	622	462
4	109	465	582	580
4	582	622	41	581
4	465	67	622	420
4	580	420	581	85
4	582	465	622	581
4	580	581	420	465
4	622	420	581	465
4	582	465	581	580
4	19	329	328	261
4	328	327	86	565
4	329	87	327	564
4	261	564	565	70
4	328	329	327	565
4	261	565	564	329
4	327	564	565	329
4	328	329	565	261
4	86	326	325	566
4	325	181	6	527
4	326	46	181	575
4	566	575	527	114
4	325	326	181	527
4	566	527	575	326
4	181	575	527	326
4	325	326	527	566
4	87	324	323	563
4	323	176	46	574
4	324	5	176	535
4	563	535	574	115
4	323	324	176	574
4	563	574	535	324
4	176	535	574	324
4	323	324	574	563
4	70	562	567	263
4	567	576	114	530
4	562	115	576	538
4	263	538	530	23
4	567	562	576	530
4	263	530	538	562
4	576	538	530	562
4	567	562	530	263
4	86	327	326	566
4	326	323	46	575
4	327	87	323	623
4	566	623	575	114
4	326	327	323	575
4	566	575	623	327
4	323	623	575	327
4	326	327	575	566
4	70	567	562	564
4	562	576	115	563
4	567	114	576	623
4	564	623	563	87
4	562	567	576	563
4	564	563	623	567
4	576	623	563	567
4	562	567	563	564
4	46	574	575	323
4	575	576	114	623
4	574	115	576	563
4	323	563	623	87
4	575	574	576	623
4	323	623	563	574
4	576	563	623	574
4	575	574	623	323
4	86	327	566	565
4	566	623	114	567
4	327	87	623	564
4	565	564	567	70
4	566	327	623	567
4	565	567	564	327
4	623	564	567	327
4	566	327	567	565
4	23	530	281	288
4	281	583	75	287
4	530	114	583	559
4	288	559	287	77
4	281	530	583	287
4	288	287	559	530
4	583	559	287	530
4	281	530	287	288
4	75	585	278	283
4	278	337	21	282
4	585	89	337	518
4	283	518	282	76
4	278	585	337	282
4	283	282	518	585
4	337	518	282	585
4	278	585	282	283
4	114	527	584	561
4	584	335	89	520
4	527	6	335	519
4	561	519	520	113
4	584	527	335	520
4	561	520	519	527
4	335	519	520	527
4	584	527	520	561
4	77	560	286	285
4	286	521	76	284
4	560	113	521	522
4	285	522	284	22
4	286	560	521	284
4	285	284	522	560
4	521	522	284	560
4	286	560	284	285
4	75	583	585	283
4	585	584	89	518
4	583	114	584	624
4	283	624	518	76
4	585	583	584	518
4	283	518	624	583
4	584	624	518	583
4	585	583	518	283
4	77	286	560	559
4	560	521	113	561
4	286	76	521	624
4	559	624	561	114
4	560	286	521	561
4	559	561	624	286
4	521	624	561	286
4	560	286	561	559
4	89	520	518	584
4	518	521	76	624
4	520	113	521	561
4	584	561	624	114
4	518	520	521	624
4	584	624	561	520
4	521	561	624	520
4	518	520	624	584
4	75	583	283	287
4	283	624	76	286
4	583	114	624	559
4	287	559	286	77
4	283	583	624	286
4	287	286	559	583
4	624	559	286	583
4	283	583	286	287
CELL_TYPES		2304
10
10
10
10
10
10
10
10
10
10
10
10
10
10
10
10
10
10
10
10
10
10
10
10
10
10
10
10
10
10
10
10
10
10
10
10
10
10
10
10
10
10
10
10
10
10
10
10
10
10
10
10
10
10
10
10
10
10
10
10
10
10
10
10
10
10
10
10
10
10
10
10
10
10
10
10
10
10
10
10
10
10
10
10
10
10
10
10
10
10
10
10
10
10
10
10
10
10
10
10
10
10
10
10
10
10
10
10
10
10
10
10
10
10
10
10
10
10
10
10
10
10
10
10
10
10
10
10
10
10
10
10
10
10
10
10
10
10
10
10
10
10
10
10
10
10
10
10
10
10
10
10
10
10
10
10
10
10
10
10
10
10
10
10
10
10
10
10
10
10
10
10
10
10
10
10
10
10
10
10
10
10
10
10
10
10
10
10
10
10
10
10
10
10
10
10
10
10
10
10
10
10
10
10
10
10
10
10
10
10
10
10
10
10
10
10
10
10
10
10
10
10
10
10
10
10
10
10
10
10
10
10
10
10
10
10
10
10
10
10
10
10
10
10
10
10
10
10
10
10
10
10
10
10
10
10
10
10
10
10
10
10
10
10
10
10
10
10
10
10
10
10
10
10
10
10
10
10
10
10
10
10
10
10
10
10
10
10
10
10
10
10
10
10
10
10
10
10
10
10
10
10
10
10
10
10
10
10
10
10
10
10
10
10
10
10
10
10
10
10
10
10
10
10
10
10
10
10
10
10
10
10
10
10
10
10
10
10
10
10
10
10
10
10
10
10
10
10
10
10
10
10
10
10
10
10
10
10
10
10
10
10
10
10
10
10
10
10
10
10
10
10
10
10
10
10
10
10
10
10
10
10
10
10
10
10
10
10
10
10
10
10
10
10
10
10
10
10
10
10
10
10
10
10
10
10
10
10
10
10
10
10
10
10
10
10
10
10
10
10
10
10
10
10
10
10
10
10
10
10
10
10
10
10
10
10
10
10
10
10
10
10
10
10
10
10
10
10
10
10
10
10
10
10
10
10
10
10
10
10
10
10
10
10
10
10
10
10
10
10
10
10
10
10
10
10
10
10
10
10
10
10
10
10
10
10
10
10
10
10
10
10
10
10
10
10
10
10
10
10
10
10
10
10
10
10
10
10
10
10
10
10
10
10
10
10
10
10
10
10
10
10
10
10
10
10
10
10
10
10
10
10
10
10
10
10
10
10
10
10
10
10
10
10
10
10
10
10
10
10
10
10
10
10
10
10
10
10
10
10
10
10
10
10
10
10
10
10
10
10
10
10
10
10
10
10
10
10
10
10
10
10
10
10
10
10
10
10
10
10
10
10
10
10
10
10
10
10
10
10
10
10
10
10
10
10
10
10
10
10
10
10
10
10
10
10
10
10
10
10
10
10
10
10
10
10
10
10
10
10
10
10
10
10
10
10
10
10
10
10
10
10
10
10
10
10
10
10
10
10
10
10
10
10
10
10
10
10
10
10
10
10
10
10
10
10
10
10
10
10
10
10
10
10
10
10
10
10
10
10
10
10
10
10
10
10
10
10
10
10
10
10
10
10
10
10
10
10
10
10
10
10
10
10
10
10
10
10
10
10
10
10
10
10
10
10
10
10
10
10
10
10
10
10
10
10
10
10
10
10
10
10
10
10
10
10
10
10
10
10
10
10
10
10
10
10
10
10
10
10
10
10
10
10
10
10
10
10
10
10
10
10
10
10
10
10
10
10
10
10
10
10
10
10
10
10
10
10
10
10
10
10
10
10
10
10
10
10
10
10
10
10
10
10
10
10
10
10
10
10
10
10
10
10
10
10
10
10
10
10
10
10
10
10
10
10
10
10
10
10
10
10
10
10
10
10
10
10
10
10
10
10
10
10
10
10
10
10
10
10
10
10
10
10
10
10
10
10
10
10
10
10
10
10
10
10
10
10
10
10
10
10
10
10
10
10
10
10
10
10
10
10
10
10
10
10
10
10
10
10
10
10
10
10
10
10
10
10
10
10
10
10
10
10
10
10
10
10
10
10
10
10
10
10
10
10
10
10
10
10
10
10
10
10
10
10
10
10
10
10
10
10
10
10
10
10
10
10
10
10
10
10
10
10
10
10
10
10
10
10
10
10
10
10
10
10
10
10
10
10
10
10
10
10
10
10
10
10
10
10
10
10
10
10
10
10
10
10
10
10
10
10
10
10
10
10
10
10
10
10
10
10
10
10
10
10
10
10
10
10
10
10
10
10
10
10
10
10
10
10
10
10
10
10
10
10
10
10
10
10
10
10
10
10
10
10
10
10
10
10
10
10
10
10
10
10
10
10
10
10
10
10
10
10
10
10
10
10
10
10
10
10
10
10
10
10
10
10
10
10
10
10
10
10
10
10
10
10
10
10
10
10
10
10
10
10
10
10
10
10
10
10
10
10
10
10
10
10
10
10
10
10
10
10
10
10
10
10
10
10
10
10
10
10
10
10
10
10
10
10
10
10
10
10
10
10
10
10
10
10
10
10
10
10
10
10
10
10
10
10
10
10
10
10
10
10
10
10
10
10
10
10
10
10
10
10
10
10
10
10
10
10
10
10
10
10
10
10
10
10
10
10
10
10
10
10
10
10
10
10
10
10
10
10
10
10
10
10
10
10
10
10
10
10
10
10
10
10
10
10
10
10
10
10
10
10
10
10
10
10
10
10
10
10
10
10
10
10
10
10
10
10
10
10
10
10
10
10
10
10
10
10
10
10
10
10
10
10
10
10
10
10
10
10
10
10
10
10
10
10
10
10
10
10
10
10
10
10
10
10
10
10
10
10
10
10
10
10
10
10
10
10
10
10
10
10
10
10
10
10
10
10
10
10
10
10
10
10
10
10
10
10
10
10
10
10
10
10
10
10
10
10
10
10
10
10
10
10
10
10
10
10
10
10
10
10
10
10
10
10
10
10
10
10
10
10
10
10
10
10
10
10
10
10
10
10
10
10
10
10
10
10
10
10
10
10
10
10
10
10
10
10
10
10
10
10
10
10
10
10
10
10
10
10
10
10
10
10
10
10
10
10
10
10
10
10
10
10
10
10
10
10
10
10
10
10
10
10
10
10
10
10
10
10
10
10
10
10
10
10
10
10
10
10
10
10
10
10
10
10
10
10
10
10
10
10
10
10
10
10
10
10
10
10
10
10
10
10
10
10
10
10
10
10
10
10
10
10
10
10
10
10
10
10
10
10
10
10
10
10
10
10
10
10
10
10
10
10
10
10
10
10
10
10
10
10
10
10
10
10
10
10
10
10
10
10
10
10
10
10
10
10
10
10
10
10
10
10
10
10
10
10
10
10
10
10
10
10
10
10
10
10
10
10
10
10
10
10
10
10
10
10
10
10
10
10
10
10
10
10
10
10
10
10
10
10
10
10
10
10
10
10
10
10
10
10
10
10
10
10
10
10
10
10
10
10
10
10
10
10
10
10
10
10
10
10
10
10
10
10
10
10
10
10
10
10
10
10
10
10
10
10
10
10
10
10
10
10
10
10
10
10
10
10
10
10
10
10
10
10
10
10
10
10
10
10
10
10
10
10
10
10
10
10
10
10
10
10
10
10
10
10
10
10
10
10
10
10
10
10
10
10
10
10
10
10
10
10
10
10
10
10
10
10
10
10
10
10
10
10
10
10
10
10
10
10
10
10
10
10
10
10
10
10
10
10
10
10
10
10
10
10
10
10
10
10
10
10
10
10
10
10
10
10
10
10
10
10
10
10
10
10
10
10
10
10
10
10
10
10
10
10
10
10
10
10
10
10
10
10
10
10
10
10
10
10
10
10
10
10
10
10
10
10
10
10
10
10
10
10
10
10
10
10
10
10
10
10
10
10
10
10
10
10
10
10
10
10
10
10
10
10
10
10
10
10
10
10
10
10
10
10
10
10
10
10
10
10
10
10
10
10
10
10
10
10
10
10
10
10
10
10
10
10
10
10
10
10
10
10
10
10
10
10
10
10
10
10
10
10
10
10
10
10
10
10
10
10
10
10
10
10
10
10
10
10
10
10
10
10
10
10
10
10
10
10
10
10
10
10
10
10
10
10
10
10
10
10
10
10
10
10
10
10
10
10
10
10
10
10
10
10
10
10
10
10
10
10
10
10
10
10
10
10
10
10
10
10
10
10
10
10
10
10
10
10
10
10
10
10
10
10
10
10
10
10
10
10
10
10
10
10
10
10
10
10
10
10
10
10
10
10
10
10
10
10
10
10
10
10
10
10
10
10
10
10
10
10
10
10
10
10
10
10
10
10
10
10
10
10
10
10
10
10
10
10
10
10
10
10
10
10
10
10
10
10
10
10
10
10
10
10
10
10
10
10
10
10
10
10
10
10
10
10
10
10
10
10
10
10
10
10
10
10
10
10
10
10
10
10
10
10
10
10
10
10
10
10
10
10
10
10
10
10
10
10
10
10
10
10
10
10
10
10
10
10
10
10
10
10
10
10
10
10
10
10
10
10
10
10
10
10
10
10
10
10
10
10
10
10
10
10
10
10
10
10
10
10
10
10
10
10
10
10
10
10
10
10
10
10
10
10
10
10
10
10
10
10
10
10
10
10
10
10
10
10
10
10
10
10
10
10
10
10
10
10
10
10
10
10
10
10
10
10
10
10
10
10
10
10
10
10
10
10
10
10
10
10
10
10
10
10
10
10
10
10
10
10
10
10
10
10
10
10
10
10
10
10
10
10
10
10
10
10
10
10
10
10
10
10
10
10
10
10
10
10
10
10
10
10
10
10
10
10
10
10
10
10
10
10
10
10
10
10
10
10
10
10
10
10
10
10
10
10
10
10
10
10
10
10
10
10
10
10
10
10
10
10
10
10
10
10
10
10
10
10
10
10
10
10
10
10
10
10
10
10
10
10
10
10
10
10
10
10
10
10
10
10
10
10
10
10
10
10
10
10
10
10
10
10
10
10
10
10
10
10
10
10
10
10
10
10
10
10
10
10
10
10
10
10
10
10
10
10
10
10
10
10
10
10
10
10
10
10
10
10
10
10
10
10
10
10
10
10
10
10
10
10
10
10
10
10
10
10
10
10
10
10
10
10
10
10
10
10
10
10
10
10
10
10
10
10
10
10
10
10
10
10
10
10
10
10
10
10
10
10
10
10
10
10
10
10
10
10
10
10
10
10
10
10
10
10
10
10
10
10
10
10
10
10
10
10
10
10

POINT_DATA	625
SCALARS u_x double 1
LOOKUP_TABLE  table1
-0.0286679
-0.0274576
-0.023688
-0.0196686
-0.0196144
-0.0194806
-0.0112693
-0.00359284
0
-0.0123456
-0.0218554
-0.027248
-0.0313156
-0.0325688
0.0325155
0.0309145
0.0262665
0.0270216
0.026917
0.0223104
0.0120505
0
0
0.010774
0.0190196
0.0241467
0.0275526
0.028549
-0.0303414
-0.0294364
-0.0282942
-0.0306063
-0.0322668
-0.0279639
-0.0261151
-0.0293736
-0.0257547
-0.0250059
-0.0231284
-0.0202702
-0.0219914
-0.0209664
-0.0196528
-0.0211023
-0.0207351
-0.0165795
-0.0155303
-0.0170361
-0.0115401
-0.00760093
-0.00636979
-0.00403172
-0.00661942
0.0319297
0.0300348
0.0303668
0.0293002
0.0282049
0.027629
0.0262915
0.0291369
0.0253879
0.0244544
0.0227762
0.0258332
0.0256948
0.0270051
0.0254255
0.0202491
0.0216575
0.0163618
0.015337
0.0172789
0.0112646
0.00652172
0.00599069
0.0020116
0.00566785
0.00161147
0.00163982
0.0015437
0.00147432
0.00125056
0.00367886
0.00369211
0.00366413
0.00086336
0.000901479
0.000514841
-0.000393164
0.000190712
-0.00188422
-0.00191225
-0.00188726
-0.00181388
-0.00151921
-0.0014724
-0.0014933
-0.00123223
-0.00068435
-0.000482472
-0.000128469
-5.57129e-05
0.0023252
0.00236658
-0.000371778
-0.000155996
-0.000242675
0.000934979
0.00237036
-2.73633e-05
-0.000143431
3.15842e-05
-4.59953e-05
0.000351573
0.000137482
-0.000166274
-0.0295693
-0.0293612
-0.0285361
-0.0309452
-0.0303682
-0.0299899
-0.0290115
-0.0284527
-0.0279498
-0.0296358
-0.0305303
-0.0316425
-0.0325104
-0.0314942
-0.0313057
-0.031898
-0.0277325
-0.02685
-0.029651
-0.0287888
-0.0270454
-0.0261719
-0.0251543
-0.0269591
-0.0249279
-0.0303726
-0.0287197
-0.0275996
-0.0283026
-0.0265522
-0.0244769
-0.0235981
-0.0261677
-0.0254124
-0.0241013
-0.0236418
-0.0226464
-0.0225248
-0.0228073
-0.021033
-0.0217813
-0.0211922
-0.019643
-0.0209896
-0.0219233
-0.0210646
-0.0220339
-0.0202596
-0.0196303
-0.0203108
-0.0203458
-0.0196647
-0.020359
-0.0215813
-0.0209441
-0.0211924
-0.0208246
-0.0202381
-0.0177001
-0.0174077
-0.019133
-0.0185791
-0.016035
-0.0140635
-0.013576
-0.0142509
-0.0113687
-0.0193893
-0.0168956
-0.0144321
-0.0146453
-0.0120072
-0.00886954
-0.00859531
-0.0100041
-0.0093784
-0.00715597
-0.00474908
-0.00432726
-0.00615529
-0.00895144
-0.00387064
-0.00457495
-0.00340033
0
-0.00450087
0.0322117
0.0312425
0.031429
0.0315453
0.0306061
0.0309707
0.0302598
0.0293581
0.0294879
0.0301252
0.0297259
0.0284702
0.0279236
0.0288884
0.0291615
0.0283904
0.0292325
0.0285751
0.0259355
0.025336
0.0269789
0.0278038
0.0270316
0.0300846
0.0283452
0.0279321
0.0260241
0.0272893
0.0266863
0.0247146
0.0252759
0.0248616
0.0235818
0.0222545
0.0235624
0.0240577
0.0234141
0.0255026
0.0253098
0.0263909
0.0263871
0.0257775
0.0250399
0.0246385
0.0270208
0.0263506
0.0269666
0.0262157
0.0262848
0.0255711
0.024272
0.0208972
0.0215926
0.0198725
0.0204077
0.0213104
0.0223298
0.0228622
0.0188703
0.0183251
0.013685
0.0131197
0.0158996
0.0180487
0.0172755
0.0196287
0.0166683
0.0148502
0.011616
0.0143071
0.0140924
0.01087
0.00931474
0.00899681
0.00363586
0.00311149
0.00600817
0.00849709
0.00806565
0
0.00385826
0
0.00311368
0.00359436
0.00574057
0.00814061
-0.0134006
0.00164184
-0.0134217
0.0164138
0.0166376
0.01672
0.0168126
-0.0132888
-0.0129173
-0.0132105
0.00154044
0.0161029
-0.0125198
-0.0116523
-0.0120915
0.00150754
0.0156224
-0.0111771
0.00146533
0.013679
0.014582
0.015147
-0.00798219
-0.00798308
-0.00798139
-0.00798447
0.00368876
0.0153467
0.0153564
-0.00797402
0.00367546
0.0152973
0.0153331
0.0153425
-0.00807033
-0.0093507
-0.00605371
-0.00695638
0.000872634
0.0100693
0.0113854
-0.00527374
0.000887621
0.00622342
0.0077833
0.00891773
-0.0045735
4.44884e-05
0.00103445
0.00289022
0.00452543
-0.00321853
0
-0.00183696
-0.000181715
0.000868863
-0.0170103
-0.0168324
-0.0171627
-0.0170995
-0.00187446
0.0132673
0.0132103
-0.00189441
-0.0165291
0.0131444
0.0130046
0.0127527
-0.00186236
-0.0161728
0.0124476
0.0121329
0.0116509
-0.0150627
-0.0143092
-0.0156452
-0.00169073
0.0112181
-0.0130583
-0.0124208
-0.0135529
-0.00143427
0.0106253
-0.00149069
-0.0116381
0.00993975
0.00936165
0.00857973
-0.00137155
-0.0106128
0.00776481
0.00697975
0.00588258
-0.00805389
-0.00657579
-0.00931302
-0.000990011
0.00494927
-0.00363281
-0.00220782
-0.00512125
-0.000544326
0.00382299
-5.7777e-05
0
0.00257403
0.00155069
0
0.00077971
-0.0143557
0.0159325
0.0150999
0.0142053
-0.0152857
-0.000986089
-0.0162373
-0.00867105
0.014688
0.00301339
-0.00938758
-0.010286
0.00175935
0.0141019
0.0136224
-0.00917609
-0.00862173
-0.00960372
0.00173383
0.0129494
0.00299384
0.01392
0.0146087
0
0
-0.00203404
0.000240624
0
-0.000213098
0.000857662
0.000851315
-0.0143348
-0.0151871
0.0138037
-0.00108599
-0.0159666
-0.0152476
-0.0161287
-0.00101326
-7.49819e-05
0.0141051
0.0139945
0.015032
0.000759544
0.015768
-0.0142519
0.0135487
-0.000200716
-0.0141284
-0.0138814
-0.0156624
-0.00103395
-0.0147706
0.000725577
0.0146648
0.0155411
0.0144348
0.0152982
0.000695267
0.0133124
0.012051
0.0140453
0.00169062
-0.0109513
0.013137
-0.0100996
0.0016817
0.0139542
0.0146473
0.0146856
0.0146943
0.00236907
-0.015324
-0.0134563
-0.0144183
-0.000904016
0.0125679
0.0132642
-0.000156936
0.0129518
-0.0118503
-0.011553
-0.0115085
-0.000716098
0.00995061
-0.0123089
0.0120288
-0.000643555
-0.0120533
-0.0120315
0.0112568
-4.64097e-05
0.0106131
0.012676
0.0132464
0.000565304
0.0119028
0.000475531
0.011974
0.00105588
0.0125797
0.0130639
-0.0148582
-0.0135396
-0.000889411
-0.0131046
-0.0126809
-3.36987e-05
-0.012828
-0.000780455
-0.0136281
0.014352
0.000707955
0.0133708
0.0148274
0.0137263
0.000732757
-0.000332888
-0.00237192
-0.00320167
0.00136389
-0.0042778
-0.000113656
0.0015098
0.00125878
-0.000387766
-0.00229217
-0.00315555
-0.00567569
-0.00541216
-0.0062917
-0.000218818
0.00548176
-0.00385156
-0.000461401
-0.00340602
-0.01002
-0.00865039
-0.0093256
-0.000483289
0.00668101
-0.010945
0.0092596
-0.000671317
-0.0102171
-0.00960306
0.00838578
-0.000120988
0.00756804
-0.0100848
-0.0105348
0.000947442
0.000428281
0.0104562
0.00977652
-0.0104198
-0.000161434
-0.0110063
0.0104906
0.00040034
0.0112045
0.00373828
0.00255724
0.000327109
0.00819686
0.000447274
0.00935883
0.00826976
0.000494374
0.00736467
0.00591534
0.000220026
0.00577148
-0.00885806
-0.00723342
-0.000442007
-0.00776912
-0.00679961
0.000153129
0.00301271
-0.00863445
-0.00935458
0.00301841
-0.00860734
-0.00929084
0.00407694
2.95699e-05
0.00295381
-0.00923373
-0.00994338
0.00168489
-0.00104346
0.0158857
-0.0161901
-0.0150389
0.000686281
0.014009
-0.000981649
-0.00064129
0.0125615
-0.014024
-0.0143452
-0.0128812
0.0138961
0.0141029
0.000684761
-0.000325607
-0.00464723
-0.000625241
0.000336789
-0.000442226
0.00903311
0.00730537
-0.00839382
0.00302481
-0.00193626
0.0134823
-0.00866163
0.0111893
-0.00769472
0.0148751
0.00431997
-0.0109571
-0.00975981
0.00236505
0.000386869
0.00264278

SCALARS u_y double 1
LOOKUP_TABLE  table2
0.0113316
0.00739991
0.00363416
0.00358641
0.000977357
0.00168188
-0.00120952
0.000359828
0
0.00148241
0.0028621
0.00498302
0.00791693
0.0112953
0.0121029
0.0091449
0.00630777
0.00661478
0.00391877
0.00340565
0.00189673
0
0
-0.000802456
0.00208882
0.00504661
0.00867644
0.0124043
0.00945061
0.00763895
0.00931307
0.0112959
0.00954376
0.00593924
0.00565827
0.00640871
0.00434106
0.00390701
0.00319923
0.00216889
0.00244896
0.00223209
0.00223474
0.00361237
0.00113643
0.00109495
0.000385586
0.0022115
0.00014086
0.000975904
-4.52493e-05
0.000374266
-0.00100281
0.0107751
0.010664
0.0124303
0.00886832
0.0105685
0.00719432
0.00684505
0.00762893
0.0057307
0.00522465
0.00433821
0.00659165
0.00533772
0.0053082
0.00382962
0.0027163
0.00370194
0.001389
0.000473251
0.00240456
0.00064817
0.00168258
0.000235738
-0.000292954
-0.000466813
0.0100824
0.0118501
0.00823956
0.00660334
0.00496044
0.00377058
0.00510829
0.00245757
0.00130311
0.00237644
0.000237414
0.000230145
-0.000282656
0.0118382
0.0100312
0.00828813
0.00662833
0.00504559
0.00378293
0.00251559
0.00137653
0.000365213
0.000108543
0.000161392
0.0118263
0.00510899
0.00244919
5.81211e-05
0.0100497
0.00824447
0.00379064
0.00377902
0.00659755
0.00382184
0.00487108
0.000223624
4.82674e-05
0.00131567
0.00243102
0.010398
0.00939162
0.0103367
0.00862149
0.00776319
0.0085134
0.00844301
0.00751367
0.00834416
0.011345
0.0103837
0.0112296
0.0104036
0.0103608
0.00948881
0.00872796
0.0066736
0.00653539
0.00691398
0.00677339
0.00581277
0.00492781
0.00471587
0.00512206
0.00396802
0.00715804
0.00614254
0.00537809
0.0056359
0.00468328
0.00372402
0.00337138
0.00439006
0.00408558
0.00356192
0.00343403
0.00300169
0.00282065
0.00301426
0.00247967
0.00265954
0.00227508
0.00189324
0.00189828
0.00286742
0.00288089
0.00366272
0.0016131
0.00160588
0.00223626
0.00289229
0.00289306
0.00359172
0.00227018
0.00134339
0.00171465
0.00163026
0.00101569
0.00138222
0.00101257
0.00197272
0.00162227
0.000760358
7.8743e-05
-0.000357833
0.000586925
-0.000578013
0.00258311
0.00159793
0.00116876
0.00175176
0.000861008
4.67372e-06
-0.000365518
0.00129171
0.00066372
0.000397113
0.00086845
-3.09831e-05
-0.000378939
-0.000962583
0.000601269
0.000183055
-0.000226837
0
-0.000944957
0.0114706
0.0115058
0.0122963
0.00999294
0.0098619
0.0107324
0.0115435
0.0115285
0.0124296
0.00897899
0.00978375
0.00876741
0.00963346
0.00971963
0.0106046
0.0114921
0.00820348
0.0080004
0.00620364
0.00596928
0.00700533
0.00788991
0.00773883
0.0084088
0.00738413
0.00690758
0.00601445
0.00661475
0.00639542
0.00537305
0.00585795
0.00548853
0.00444756
0.00396238
0.0048605
0.00512596
0.00466815
0.0064977
0.00599017
0.00661473
0.0059745
0.00599282
0.00535173
0.0046004
0.00596731
0.00531291
0.00462713
0.0039007
0.00463033
0.00463427
0.00367973
0.00304937
0.00360809
0.00239573
0.0029097
0.00335773
0.00398173
0.00439625
0.00238715
0.00197298
0.000435762
-0.000107589
0.000980826
0.00153946
0.0011151
0.00294537
0.00183609
0.00204341
0.0012361
0.00142311
0.000900841
-5.36242e-05
0.00173988
0.00108252
0.00123246
0.000416519
0.00096075
0.000508496
-0.000209099
0
8.28703e-05
0
-0.000506045
-1.7377e-05
-0.000207237
-0.000726675
0.0106809
0.0109433
0.0115689
0.00958656
0.0104219
0.0112295
0.0120495
0.00969951
0.00780049
0.00874624
0.00917472
0.00871068
0.00697906
0.00518876
0.00610915
0.00743287
0.00791902
0.00435205
0.00577077
0.00557336
0.00635938
0.00715093
0.00366371
0.00435587
0.00236051
0.00300108
0.00443107
0.00519903
0.00585997
0.0017257
0.00311439
0.00319242
0.00388091
0.00454543
0.00143009
0.00205412
3.89749e-05
0.000776616
0.00186446
0.00240823
0.00282721
-0.000593008
0.000763082
0.00112779
0.0015331
0.00197853
-0.000387926
0.000250737
0.00051771
0.00092431
0.0010232
-0.000548574
0
-0.000637616
-0.000177984
-2.92917e-05
0.00978478
0.00894397
0.0114893
0.0106446
0.010926
0.0121614
0.0112186
0.00916365
0.00812578
0.0102954
0.00939804
0.00845516
0.0074458
0.00730527
0.00749776
0.00671713
0.00587548
0.00574953
0.005113
0.00652554
0.00579758
0.0050328
0.00383419
0.00329294
0.00447687
0.0043778
0.00428463
0.00318427
0.00268477
0.00366648
0.00307563
0.00228745
0.00191175
0.00221785
0.00133421
0.000915224
0.000352166
0.00132627
0.00107356
0.00179529
0.000809745
-0.000217758
0.000604744
0.00033947
0.000761746
9.6657e-06
-0.000522393
2.83355e-06
0
-0.000125554
-0.00026816
0
0.0118413
0.0115549
0.0121485
0.0121251
0.0121092
0.0115853
0.0118644
0.0115673
0.00436397
0.00585984
0.00510916
0.00438773
0.00438709
0.00505169
0.00582596
0.00573745
0.00180589
0.00174699
0.00189221
0.00246169
0.00301341
0.00244797
0.0031344
0.00316856
0
0
0.000203944
-3.80714e-06
0
3.9532e-05
-0.000146232
-0.000241838
0.0106653
0.00975137
0.00942419
0.00914739
0.00888031
0.0106643
0.00975089
0.0109332
0.0109351
0.0112098
0.010323
0.0112312
0.0109502
0.0103883
0.00972355
0.00847643
0.00914276
0.00880102
0.00787478
0.00802894
0.00826144
0.00795383
0.0100676
0.00946371
0.00949802
0.00854222
0.00860731
0.00824675
0.00457994
0.00375224
0.00521682
0.00445256
0.00374993
0.00383812
0.00368414
0.00377812
0.00386223
0.00387249
0.00455593
0.00521393
0.00444566
0.00717915
0.0070249
0.00710175
0.00661796
0.00598882
0.00760196
0.00739513
0.00680094
0.00303156
0.00391636
0.00353076
0.00320144
0.00323771
0.00364843
0.00509604
0.00440648
0.00408921
0.00439507
0.00449354
0.00435434
0.00392142
0.00527308
0.00541392
0.00490217
0.00470152
0.00437882
0.0042712
0.0043963
0.0044897
0.00510146
0.00637371
0.00545001
0.00577511
0.00618896
0.00531177
0.00576023
0.00465575
0.00495671
0.00489065
0.00698075
0.00573931
0.0060833
0.00777841
0.0068965
0.00741246
-4.50226e-05
-0.000105295
-0.000144018
0.000158814
-6.95089e-05
0.000237791
0.000146207
8.44206e-05
2.59843e-06
-1.77835e-06
3.73401e-05
0.000156124
-0.000425571
0.000623858
0.000186225
-8.82404e-05
0.000130593
3.99307e-05
0.000191746
0.00190224
0.00160742
0.0017478
0.00135868
0.000599853
0.00247436
0.00239346
0.00246795
0.00228388
0.00213371
0.00164481
0.00183248
0.00115149
0.00249746
0.00307106
0.00311798
0.00242567
0.00266539
0.00254743
0.00265379
0.00311886
0.00328516
0.00336635
0.00379996
0.00351996
-8.01464e-05
9.7208e-05
0.000174228
0.00137486
0.00181698
0.00205832
0.00158163
0.00067418
0.000876999
0.000673544
0.00010395
0.000348088
0.00144131
0.000635289
0.000769575
0.000989947
0.000302051
0.000734835
0.00443423
0.00300512
0.00367131
0.0031183
0.00236201
0.00299931
0.000304744
0.000193649
0.000452461
0.00235767
0.00300598
0.00310811
0.0100291
0.011251
0.0106541
0.00883411
0.00914747
0.0045647
0.00741003
0.0038081
0.00490853
0.00627153
0.00560063
0.0042778
0.00620576
0.0076816
0.00658186
-4.12865e-05
0.0003768
0.00183679
0.00303792
9.24264e-05
0.00179351
0.00117406
0.00118945
0.00377581
-0.000200511
0.00520061
0.00366841
0.00405909
0.000999035
0.0103519
0.000610181
0.00286923
0.00238889
0.00310379
0.00126896
0.000292042

SCALARS u_z double 1
LOOKUP_TABLE  table3
-0.213674
-0.151801
-0.0946426
-0.0909717
-0.0442777
-0.0481624
-0.0139263
-0.00027728
0
-0.0151932
-0.0484406
-0.096676
-0.153033
-0.214807
-0.214601
-0.151594
-0.0951296
-0.0910074
-0.0443606
-0.0475061
-0.0149127
0
0
-0.0143284
-0.0488268
-0.0962233
-0.153161
-0.214904
-0.18297
-0.152544
-0.182243
-0.213885
-0.183599
-0.123367
-0.122763
-0.123838
-0.0960883
-0.071406
-0.0711603
-0.0487818
-0.0703956
-0.0690646
-0.0675845
-0.0925631
-0.0458935
-0.0298631
-0.029862
-0.0295216
-0.0152955
-0.005396
-0.00536104
-0.000194412
-0.00524682
-0.182407
-0.183135
-0.213896
-0.152456
-0.18372
-0.123279
-0.12377
-0.122523
-0.0961112
-0.0704941
-0.0717437
-0.0925688
-0.0690396
-0.0676346
-0.0459019
-0.0485842
-0.0718543
-0.0294686
-0.0293152
-0.0292722
-0.015334
-0.0054457
-0.00660018
-0.000401485
-0.00584652
-0.182269
-0.213456
-0.151381
-0.122385
-0.0945545
-0.0675948
-0.0909826
-0.0442879
-0.028952
-0.047196
-0.0135589
-0.0044416
0.0003956
-0.214574
-0.18356
-0.152911
-0.123571
-0.0960069
-0.0712776
-0.0480465
-0.0288815
-0.0138855
-0.00488257
7.19799e-05
-0.213787
-0.0925489
-0.0458797
-4.6186e-05
-0.182951
-0.152362
-0.0702059
-0.0689972
-0.123099
-0.0711446
-0.0952443
-0.00522498
-0.0134867
-0.0292154
-0.048194
-0.198129
-0.182637
-0.197831
-0.167954
-0.15282
-0.167663
-0.167326
-0.152183
-0.16691
-0.213603
-0.198423
-0.214591
-0.199131
-0.198809
-0.183318
-0.168236
-0.137463
-0.13714
-0.138058
-0.13779
-0.123055
-0.109058
-0.108686
-0.10943
-0.0954702
-0.138271
-0.123648
-0.109749
-0.109902
-0.0965179
-0.0833633
-0.0828643
-0.0837885
-0.0836721
-0.0714616
-0.059717
-0.0596588
-0.0708654
-0.0823485
-0.048779
-0.0596544
-0.0593158
-0.0485218
-0.0588893
-0.0816046
-0.0808087
-0.0934839
-0.0566674
-0.0559236
-0.0683407
-0.0800422
-0.079275
-0.0917483
-0.0697641
-0.0468297
-0.0581678
-0.0574502
-0.0450732
-0.0388297
-0.038713
-0.0388452
-0.0388991
-0.0298449
-0.0218019
-0.0217206
-0.0219057
-0.0147061
-0.0386188
-0.0297903
-0.0218709
-0.0215566
-0.0154686
-0.00990041
-0.00930708
-0.00965442
-0.010006
-0.00548969
-0.0024115
-0.00262671
-0.00536518
-0.00906813
-0.000162498
-0.00263541
-0.00267187
0
-0.00285628
-0.198061
-0.19824
-0.214038
-0.166979
-0.167436
-0.182773
-0.198502
-0.198881
-0.214484
-0.152046
-0.167772
-0.152797
-0.168376
-0.168059
-0.183431
-0.199209
-0.137346
-0.137737
-0.109567
-0.109763
-0.123568
-0.138054
-0.138306
-0.136942
-0.122954
-0.108556
-0.0957122
-0.109051
-0.109436
-0.0962206
-0.0825099
-0.0830975
-0.0588307
-0.0597058
-0.0712171
-0.0835692
-0.0838929
-0.0935728
-0.0816423
-0.091757
-0.0800544
-0.0808068
-0.0697748
-0.0580578
-0.0793166
-0.0683322
-0.0559811
-0.0451276
-0.0567107
-0.0573984
-0.0467328
-0.0481924
-0.0600246
-0.0486633
-0.0601582
-0.0600232
-0.0718184
-0.0839366
-0.0383944
-0.0387688
-0.0214623
-0.0213758
-0.0295821
-0.0388037
-0.0386809
-0.0381921
-0.0295066
-0.0214198
-0.0152239
-0.0217292
-0.0218498
-0.0149729
-0.0094238
-0.00991298
-0.00251558
-0.00317413
-0.00619717
-0.0102638
-0.0104292
0
-0.00320253
0
-0.00276242
-0.00281236
-0.00633876
-0.00983605
-0.197862
-0.197861
-0.21361
-0.166865
-0.182332
-0.197944
-0.213954
-0.182208
-0.151544
-0.166841
-0.166815
-0.151411
-0.136876
-0.108405
-0.12246
-0.136655
-0.136781
-0.0945123
-0.108263
-0.094753
-0.108335
-0.122323
-0.0792726
-0.0909735
-0.0559276
-0.0675836
-0.0792785
-0.0792968
-0.0909943
-0.0442807
-0.0559268
-0.0443121
-0.0559301
-0.0676033
-0.0380375
-0.047522
-0.0211259
-0.0291577
-0.0375327
-0.0377622
-0.0472479
-0.0135452
-0.020816
-0.013995
-0.0209492
-0.0287771
-0.0085444
-0.00838945
-0.00171952
-0.00471693
-0.0087011
-0.00455016
0
-0.00199752
-0.0017719
9.00004e-05
-0.183543
-0.168143
-0.214894
-0.199091
-0.199075
-0.214573
-0.199106
-0.168151
-0.152932
-0.183618
-0.168241
-0.153
-0.138094
-0.138118
-0.138162
-0.123546
-0.109584
-0.109624
-0.0963067
-0.12366
-0.109502
-0.0960145
-0.0711679
-0.0595221
-0.0835097
-0.0833787
-0.0835707
-0.0595473
-0.0480935
-0.0714742
-0.0596785
-0.0483129
-0.0381254
-0.0382038
-0.0382818
-0.0288127
-0.0209478
-0.0209931
-0.0143853
-0.0291056
-0.0207563
-0.0139326
-0.00488078
-0.00189178
-0.00910683
-0.00881366
-0.00917866
-0.00180598
0
-0.0050955
-0.0021559
0
-0.213573
-0.213624
-0.213686
-0.213826
-0.214307
-0.213832
-0.214189
-0.214374
-0.0917513
-0.0917548
-0.0917487
-0.0925776
-0.0934682
-0.0934858
-0.092565
-0.0935265
-0.0458961
-0.04508
-0.0467463
-0.0466552
-0.046675
-0.0450888
-0.0458718
-0.0451047
0
0
-8.15955e-05
0.000236208
0
7.47886e-05
-0.000189865
-0.000307097
-0.19809
-0.182915
-0.167988
-0.167883
-0.167882
-0.198374
-0.183254
-0.198726
-0.198365
-0.198778
-0.183337
-0.198419
-0.198086
-0.182677
-0.182589
-0.152717
-0.167578
-0.167224
-0.152044
-0.152709
-0.152615
-0.152406
-0.182613
-0.167639
-0.167281
-0.152374
-0.151923
-0.151925
-0.0696741
-0.0586001
-0.0807699
-0.0814775
-0.0821944
-0.0580218
-0.081485
-0.0696268
-0.0573787
-0.056681
-0.0683311
-0.0800445
-0.0807524
-0.137888
-0.137301
-0.137615
-0.123342
-0.109361
-0.137894
-0.137539
-0.123382
-0.0594367
-0.0827724
-0.0710375
-0.059534
-0.0598216
-0.0712295
-0.0956913
-0.0832147
-0.0830733
-0.0949437
-0.0834637
-0.0829993
-0.0714526
-0.0956263
-0.0952832
-0.0950641
-0.0832297
-0.0826437
-0.0708837
-0.0821692
-0.0702903
-0.0822774
-0.123442
-0.10914
-0.109306
-0.122873
-0.108801
-0.109028
-0.0956454
-0.0957491
-0.0961402
-0.122766
-0.108779
-0.109067
-0.13718
-0.123095
-0.137129
-0.00201578
-0.0021536
-0.00478325
-0.00206601
-0.0089961
-0.00478563
-0.00249158
-0.00243666
-0.00213443
-0.00210803
-0.0050659
-0.0142897
-0.0135742
-0.0145746
-0.0139277
-0.0138536
-0.00913052
-0.00900696
-0.005151
-0.0383716
-0.0383798
-0.0384551
-0.0290537
-0.0211138
-0.0484348
-0.0483694
-0.0481429
-0.0483636
-0.0480545
-0.0384086
-0.0382936
-0.0291191
-0.0586038
-0.070249
-0.0585179
-0.047746
-0.0478643
-0.0482781
-0.059054
-0.0593915
-0.0706976
-0.0596237
-0.0706915
-0.0591761
-0.00943373
-0.00550652
-0.00900845
-0.0291118
-0.0380373
-0.0380896
-0.02909
-0.021178
-0.0210575
-0.0142623
-0.0137898
-0.0142886
-0.0293041
-0.021283
-0.020961
-0.0294119
-0.0212438
-0.0210223
-0.0800301
-0.0683326
-0.0807854
-0.0566577
-0.0566514
-0.0690072
-0.00949148
-0.0087512
-0.00538741
-0.0574152
-0.0696605
-0.0580122
-0.183264
-0.198152
-0.198735
-0.167574
-0.167221
-0.069
-0.137872
-0.071269
-0.0828643
-0.123167
-0.109437
-0.0833509
-0.108834
-0.137539
-0.122762
-0.00217689
-0.00925758
-0.038336
-0.0590119
-0.00514375
-0.0383401
-0.0212597
-0.0293811
-0.0683272
-0.00216544
-0.0815519
-0.0800335
-0.0713046
-0.0212356
-0.183014
-0.00929723
-0.0593418
-0.0580743
-0.0573845
-0.0291241
-0.00571251

SCALARS u_magnitude double 1
LOOKUP_TABLE  table4
0.215886
0.154442
0.0976297
0.0931428
0.0484376
0.0519802
0.0179556
0.00362145
0
0.0196327
0.0532197
0.100566
0.156404
0.217556
0.217388
0.154984
0.0988906
0.0951644
0.052036
0.0525945
0.0192666
0
0
0.0179451
0.052442
0.099335
0.155862
0.217146
0.185709
0.155545
0.184662
0.216359
0.186657
0.126636
0.125638
0.127435
0.0995747
0.0757586
0.0748929
0.0528701
0.0737913
0.0722114
0.0704194
0.0950068
0.0503731
0.0341744
0.0336612
0.0341562
0.0191611
0.00937248
0.00832569
0.00405372
0.00850597
0.185494
0.185888
0.216398
0.155499
0.186172
0.126542
0.126717
0.126171
0.0995728
0.0747979
0.0753972
0.0963317
0.0738592
0.0730198
0.0526128
0.0527051
0.0751385
0.0337348
0.0330882
0.0340765
0.0190379
0.00866138
0.00891663
0.00207209
0.00815624
0.182555
0.213791
0.151613
0.122572
0.0946928
0.0677998
0.0912007
0.0445071
0.0289942
0.0472644
0.0135708
0.0044649
0.000522269
0.214909
0.183844
0.153147
0.123762
0.0961514
0.0713931
0.0481355
0.0289405
0.0139071
0.00490755
0.000218478
0.214114
0.0927189
0.0460059
0.000379117
0.183227
0.152585
0.0703144
0.0691413
0.123275
0.0712473
0.0953687
0.00522996
0.0134913
0.0292454
0.0482556
0.200593
0.185221
0.200145
0.170999
0.156002
0.170537
0.170032
0.155002
0.169439
0.215947
0.201026
0.217202
0.202035
0.201554
0.186214
0.171455
0.140391
0.139896
0.141375
0.140928
0.126126
0.112262
0.111659
0.112818
0.0987508
0.141748
0.127088
0.113294
0.113627
0.100213
0.0869622
0.0862249
0.0878894
0.0875414
0.0755005
0.0643183
0.063883
0.0744125
0.0855016
0.0531783
0.0635621
0.0630289
0.0523813
0.0625469
0.0845468
0.0835587
0.0961153
0.0602017
0.0592906
0.0713301
0.0826382
0.0817288
0.0940486
0.0730612
0.0513175
0.0619318
0.0611298
0.0494187
0.042696
0.0424588
0.0433464
0.0431388
0.0338884
0.0259444
0.0256168
0.0261399
0.0185971
0.0432901
0.0342853
0.0262295
0.0261198
0.0196008
0.0132924
0.0126742
0.0139628
0.0137301
0.00902786
0.0053966
0.00506219
0.00817412
0.0127783
0.00392043
0.0052829
0.00433043
0
0.00541379
0.200991
0.201016
0.216682
0.170226
0.170496
0.185689
0.201126
0.201366
0.216858
0.155262
0.170666
0.155674
0.170948
0.170801
0.186037
0.20155
0.140662
0.140897
0.112765
0.112807
0.126672
0.141047
0.141135
0.14046
0.126395
0.112305
0.0993693
0.112608
0.112825
0.0994891
0.0864931
0.0869104
0.0635369
0.0638416
0.075171
0.087114
0.0872241
0.0972032
0.0856851
0.0957057
0.0845026
0.0850301
0.0743246
0.0632371
0.0840051
0.0734294
0.0623097
0.0523353
0.0626772
0.0630074
0.0527885
0.0526165
0.0638922
0.0526191
0.0635921
0.0637823
0.0753151
0.0871054
0.0428476
0.0429269
0.0254579
0.0250811
0.0335985
0.0428235
0.0423781
0.0430418
0.0339388
0.026144
0.0191893
0.0260552
0.0260158
0.0185026
0.0133641
0.0134306
0.00458984
0.0044643
0.00868482
0.0133343
0.0131859
0
0.0050149
0
0.0041931
0.00456389
0.00855436
0.0127885
0.198602
0.19817
0.214344
0.167945
0.183386
0.198966
0.214952
0.18295
0.152294
0.167591
0.167074
0.152514
0.137625
0.109153
0.123207
0.136866
0.137898
0.0952704
0.108426
0.0958974
0.109497
0.123465
0.0797577
0.091427
0.0565436
0.0681197
0.0794879
0.0809353
0.0924669
0.045026
0.0561339
0.0469868
0.0581235
0.0694713
0.0389105
0.0484767
0.0219762
0.0299861
0.0375891
0.0391558
0.0486825
0.0145478
0.0208489
0.0153578
0.0224009
0.0301921
0.00969918
0.00839331
0.00207241
0.00560867
0.00986081
0.00560034
0
0.00278767
0.00179006
0.000874003
0.18459
0.16922
0.215884
0.200108
0.199383
0.215326
0.199859
0.168411
0.154038
0.184375
0.169004
0.153763
0.138307
0.139254
0.138924
0.124322
0.110358
0.110804
0.0974981
0.124817
0.109669
0.0967985
0.0724575
0.0608933
0.0847207
0.0835059
0.0843524
0.059651
0.0495544
0.0722551
0.0604866
0.0491221
0.0381979
0.0397125
0.0390841
0.0296601
0.0217609
0.022524
0.0158534
0.030612
0.0207957
0.0147872
0.00611433
0.00292721
0.0104758
0.00883046
0.0099567
0.00180691
0
0.00571012
0.00266917
0
0.213902
0.214417
0.214623
0.214701
0.215118
0.214691
0.21452
0.215299
0.0922634
0.0931076
0.0919403
0.0931557
0.0941347
0.0936387
0.0938141
0.0946873
0.0468392
0.0459303
0.0477601
0.0467522
0.0485317
0.0452543
0.0480397
0.0475172
0
0
0.00204587
0.000337207
0
0.000229274
0.000890514
0.000936766
0.198894
0.183803
0.168818
0.168135
0.168873
0.199245
0.184221
0.199029
0.198666
0.199592
0.18416
0.199304
0.19839
0.18365
0.183403
0.153551
0.167827
0.16805
0.152879
0.15372
0.152842
0.153327
0.182892
0.168545
0.168269
0.153295
0.152934
0.15215
0.0710822
0.059944
0.0821478
0.0816165
0.0830055
0.0596141
0.0821911
0.0697495
0.0591773
0.0586709
0.0700398
0.081549
0.0809094
0.138922
0.138137
0.138551
0.123522
0.110243
0.138738
0.137738
0.124246
0.0606823
0.0836665
0.0720503
0.0596244
0.0607299
0.0723772
0.096579
0.0833338
0.0840427
0.0958038
0.0843392
0.0831135
0.0723429
0.0966068
0.0963518
0.0951921
0.0842078
0.082761
0.0720147
0.0822935
0.0715481
0.0834642
0.124496
0.110112
0.109462
0.123725
0.109666
0.10918
0.096614
0.0958805
0.0972244
0.123799
0.108933
0.110052
0.138198
0.12405
0.137331
0.00204358
0.00320548
0.00575769
0.00248068
0.00996164
0.00479288
0.00291699
0.0027439
0.00216937
0.00311414
0.00596844
0.0153764
0.0146196
0.0158869
0.0139306
0.014899
0.0099105
0.00901885
0.00617823
0.0397038
0.0393754
0.0396083
0.0290895
0.0221538
0.0497176
0.0493059
0.0482108
0.0494838
0.049051
0.0393477
0.0383376
0.0301085
0.0595176
0.0711008
0.0586085
0.0478095
0.0490655
0.0493239
0.0600249
0.0594736
0.0716246
0.0606331
0.0707947
0.0603302
0.0101477
0.00607212
0.00901607
0.030275
0.0380833
0.0392765
0.030284
0.0211945
0.0223255
0.015455
0.013792
0.0154141
0.0306476
0.0224876
0.0209797
0.0304368
0.0223075
0.0210357
0.0802095
0.0689415
0.0814081
0.0568236
0.0573502
0.0696944
0.0103345
0.00875339
0.00616067
0.0582007
0.0704308
0.0581198
0.183541
0.199106
0.199677
0.168479
0.167473
0.0705556
0.138075
0.0713735
0.0839546
0.124122
0.110515
0.0844487
0.109892
0.138473
0.122941
0.00220149
0.0103654
0.0383851
0.059091
0.00516355
0.0394306
0.0225105
0.0305797
0.0684983
0.00291178
0.0828223
0.0805844
0.0722912
0.0226088
0.183909
0.01027
0.0604131
0.0589371
0.057517
0.0291543
0.00630098

SCALARS S_xx double 1
LOOKUP_TABLE  table5
0.000262016
0.00203318
0.00285721
1.5527e-05
4.22513e-05
0.00604476
0.00741065
0.0036321
0.0117408
0.00928234
0.00638253
0.00426979
0.00231955
0.000233435
-0.00121515
-0.0024171
-0.0048624
-1.50581e-05
-0.00020066
-0.00507424
-0.0110708
-0.00794739
-0.00998152
-0.00801424
-0.00509755
-0.00382914
-0.00152929
-0.000504084
0.000773443
0.00210934
0.000840756
0.000313869
0.000890047
0.00321355
0.00258615
0.00364997
0.00466942
0.00409155
0.00374095
0.00563888
0.00288175
0.000383085
6.70693e-05
0.000126386
0.000457
0.007627
0.00600638
0.00812616
0.0104351
0.00845118
0.00611087
0.00503002
0.0085871
-0.0010206
-0.0010813
-0.000400624
-0.00157109
-0.000727118
-0.00276448
-0.00251722
-0.00377345
-0.00467326
-0.00267189
-0.00489372
-0.000347884
-0.000502863
-0.000110201
-0.000418154
-0.00496747
-0.00389686
-0.00613962
-0.00644071
-0.00827418
-0.0101148
-0.0103027
-0.00956911
-0.0055528
-0.00711595
-0.000339162
-8.65797e-05
-0.000163937
-8.14331e-05
-0.00145715
-2.05153e-05
6.46386e-06
-8.46413e-05
-0.000101991
-2.71016e-06
-0.00342693
-0.00148636
0.00455118
9.25293e-05
3.92906e-05
0.000168351
0.000542803
0.00176633
-0.000129323
0.000145989
0.00133346
0.00337832
0.000733359
0.00102253
-0.000186337
-8.18738e-06
4.37779e-05
0.00137533
-0.000250223
7.84363e-05
-0.000514628
-6.4182e-05
0.000250805
-0.000233072
9.04127e-06
-0.00138431
4.43141e-05
0.000638307
3.88803e-05
0.000388998
0.00098183
0.000572882
0.00141669
0.00213269
0.00169041
0.00151112
0.00207995
0.00145506
0.000234448
0.00041627
0.000419877
0.000513579
0.000496933
0.000894409
0.00148963
0.00233013
0.00223126
0.00305521
0.00258553
0.00280268
0.00395869
0.00359532
0.00406459
0.00505604
0.00323992
0.00344248
0.00371369
0.00381835
0.00432207
0.00461887
0.00345879
0.00402282
0.00406018
0.0044513
0.00489028
0.00458859
0.00386821
0.00262584
0.00586805
0.00463223
0.00490035
0.00578796
0.00383256
0.000905506
0.000212708
0.000369705
9.93857e-05
9.26845e-05
0.000129697
7.15706e-05
2.9862e-05
4.35053e-05
0.00142328
0.0023042
0.00117038
0.000427055
0.000164811
0.00579632
0.00628423
0.00771985
0.00653287
0.00646928
0.00846778
0.00701212
0.00904203
0.0108495
0.00792906
0.0078996
0.00803484
0.00833105
0.00969492
0.00943287
0.00688604
0.00860758
0.00903765
0.00790354
0.0107389
0.00734127
0.00833525
0.00844482
0.00191308
0.00487091
0.00955803
0.011109
0.00826387
-0.000864867
-0.000660381
-0.000698977
-0.00160362
-0.00173802
-0.00114125
-0.000586055
-0.00068129
-0.000421569
-0.00180991
-0.00124171
-0.00146711
-0.00111968
-0.00101431
-0.000841449
-0.000526838
-0.00277256
-0.00294607
-0.00331975
-0.00320398
-0.00299975
-0.00231189
-0.00200553
-0.0031403
-0.00322642
-0.00503858
-0.00446776
-0.00437961
-0.00382707
-0.00469566
-0.00280701
-0.00378716
-0.00319393
-0.00522526
-0.00433377
-0.00410088
-0.00486021
-0.00165935
-0.00111934
-9.05167e-05
-0.000103061
-0.000289637
-0.00112026
-0.00173218
-3.64815e-05
-0.000203789
-0.000186034
-0.000234791
-0.000306336
-0.000745379
-0.00131038
-0.005082
-0.00430806
-0.00487213
-0.00441028
-0.00385479
-0.00409738
-0.00414615
-0.00666002
-0.00640342
-0.0071818
-0.0071059
-0.00673628
-0.00659762
-0.00587581
-0.00838508
-0.00741436
-0.00947937
-0.00994489
-0.00913013
-0.00862445
-0.0103371
-0.00984599
-0.00926202
-0.0112742
-0.0118964
-0.0104786
-0.00878788
-0.010264
-0.00825895
-0.00774771
-0.00687809
-0.00877074
-0.00785824
-0.0086024
-0.0081063
7.05035e-05
-9.33973e-05
6.52398e-05
-0.00126541
-0.000714877
-0.000423816
-0.000581684
2.6058e-05
0.00135644
0.000563866
-0.000563105
-0.0018505
0.00138702
0.00210023
0.00167611
-0.000291365
-0.00186539
0.000529335
-0.000652789
-0.00349851
-0.00296312
-0.00234107
3.9049e-05
2.19764e-05
2.19039e-05
4.9161e-05
1.31739e-05
-2.61842e-05
-2.25387e-05
-1.32299e-06
1.07217e-05
-0.000162023
-5.16665e-05
-1.89611e-05
0.00383074
0.00364813
0.00368946
0.00364834
-0.000509925
-0.00504701
-0.00361953
0.00121952
-0.0012925
-0.00827646
-0.00601674
-0.00543505
0.00348444
-0.00241021
-0.00628877
-0.00767452
-0.00723071
0.00625324
0.00881305
0.00687424
0.00221515
0.000681788
0.000570351
0.00103322
0.000248137
0.000354488
3.61348e-05
-0.000161424
-0.000236836
0.000341884
0.00134142
-0.000289144
-0.00045338
-0.000914593
0.000347768
0.00198363
-0.00125745
-0.00104631
-0.00153561
0.00267514
0.00364476
0.00215502
0.000441464
-0.000769164
0.00210286
0.00313738
0.00281985
-7.46924e-05
-0.00258883
0.000354589
0.00328503
-0.0026232
-0.0019328
-0.00301148
0.000988562
0.0052038
-0.00334575
-0.00256689
-0.00336458
0.00549317
0.00757381
0.00493962
0.000880053
-0.00161391
0.0055397
0.00764411
0.00595405
5.25754e-05
-0.00526171
0.00297675
0.00885652
-0.00191332
-0.00365393
-0.00377139
-2.99251e-05
3.73193e-05
-0.000250001
-0.000217964
-0.00040303
0.000140818
-6.68707e-05
0.000221008
6.46199e-05
-3.79204e-05
1.90495e-05
0.000197913
0.000383753
-0.000309675
-0.000382629
-0.00102578
0.00026409
0.000105765
0.00125114
3.34132e-06
-0.00132738
-1.66254e-05
-0.000256694
-0.000149067
0.00784754
0.00643665
0.00239574
0.00338479
-0.00244017
0.0029812
-0.000200808
-0.00399929
0.000191441
0.000222084
-0.000862855
-0.000170024
0.000764713
0.000149072
0.000366163
-0.000123785
-0.00021461
-0.000396967
-0.000669176
-0.000680167
-0.000263162
-0.000984814
0.000360823
-0.00112318
-0.000330657
0.000567616
0.00131737
0.00129865
7.11195e-05
0.00118214
-0.000100453
-0.000615748
-0.000775899
-0.00110344
-0.00116828
7.17705e-05
-0.000764423
-0.00235036
-0.000234923
-0.000345316
0.000933865
-0.000508294
0.000682519
5.29108e-05
-0.000202301
-0.000188553
-0.000114001
-2.27788e-05
0.000126603
0.00140767
0.00158744
0.00157619
0.000219775
-0.00190293
-0.00113344
0.000439147
-0.00138887
0.00184695
0.00190043
0.0018074
-0.000638579
-0.00274699
0.00245181
-0.0023631
-0.000280537
0.00251568
0.00231618
-0.00270253
-0.000408645
-0.00266119
-0.00321447
-0.00294572
-0.000893818
-0.00363463
-0.00140077
-0.00364408
-0.000658957
-0.00224628
-0.00202098
0.00221133
0.00264761
0.00055935
0.00138989
0.00181498
-0.00013328
0.00357625
0.00158686
0.0038325
-0.00155653
0.000409351
-0.00152949
-0.00177822
-0.00171901
2.46132e-05
3.68624e-05
0.00427967
0.00411023
-0.00409874
0.00361546
-0.000216767
-0.00353139
-0.00585061
-0.00138267
0.00301966
0.00241462
0.00785477
0.00496026
0.00793072
0.00256941
-0.00525708
0.00317645
-0.000958378
0.00437317
0.00352729
0.0040863
0.00388639
0.000488709
-0.00403512
0.003982
-0.00328631
0.000348936
0.00333137
0.00338993
-0.00368055
0.000547435
-0.00372472
0.00161698
0.0015021
-0.00037369
-0.000234878
-0.00344956
-0.00347751
0.00290306
-4.90919e-05
0.00202751
-0.00230189
0.000212998
-0.00249267
-0.00527601
-0.00435491
-0.000620876
-0.00302486
0.00081067
-0.00349033
-0.00351259
0.00089925
-0.00346243
-0.00650605
-0.00182831
-0.0071282
0.00538186
0.00603068
0.0013441
0.00351665
0.00412428
-0.000206465
1.64213e-05
7.55244e-05
0.000148755
-0.000104199
3.10312e-05
0.000234939
-0.00754912
-0.00304962
-0.00798744
0.000395702
0.00069343
3.53721e-05
-8.39997e-05
-0.000308464
0.000252353
0.000853846
-0.000174234
-0.000194294
0.000137083
-0.000224674
-0.00262659
0.00164598
0.0021933
0.00251156
-0.00236936
-0.00142813
0.000164101
0.000371962
0.00521826
9.36272e-05
-0.000388733
-3.98939e-05
-0.00367637
-0.00517891
0.00390565
4.80587e-05
0.00602046
-0.000814841
9.53248e-05
-0.00265562
0.00484086
-0.000692757
-0.00626929
0.00237279
0.000878948
6.21139e-05
0.000576428
-0.00461292

SCALARS S_yy double 1
LOOKUP_TABLE  table6
9.66333e-06
-0.000385858
-0.000609554
-2.12361e-05
-6.77792e-05
-0.000773924
-0.00165738
0.00143931
-0.000668616
-0.00248562
-0.0017724
-0.00119893
-0.000616925
-0.000262799
-0.000773248
0.000655915
0.00103543
-2.03587e-05
8.58991e-05
0.00143957
0.0026425
0.000786651
0.000787287
0.00174922
0.000841438
0.000775049
0.00021829
-1.20647e-05
-0.000106284
-0.000407913
-0.000212375
0.000131489
-0.000195462
-0.000662073
-0.00046341
-0.000902751
-0.00125896
-0.0011586
-0.00122406
-0.00102455
-0.000905664
-9.16535e-06
-3.79e-06
-8.3367e-05
-0.000498414
-0.00168567
-0.00111014
-0.00205212
-0.0025272
-0.0020895
-0.000896685
-0.00121511
-0.00258973
0.000127289
0.000211343
-0.000107983
0.000301493
0.000114996
0.000666774
0.000466893
0.00102723
0.0010599
0.000862943
0.00161345
0.000208191
-5.0458e-05
-2.36754e-05
0.000231465
0.00102626
0.000965852
0.0014898
0.0015204
0.0023257
0.00209046
0.00279998
0.00205414
5.70846e-05
0.00112094
0.000113872
-9.3458e-05
0.000159517
0.000262335
0.000459142
-1.38958e-05
-1.34136e-05
4.84001e-05
0.000631663
0.000132893
0.00105209
0.000302801
-0.0011405
0.00014063
-7.75786e-05
-0.000195247
-0.000234738
-0.000488996
-0.000251065
-0.0003035
-0.000545075
-0.000986669
-0.00049623
-0.000133563
7.87685e-06
1.85505e-05
-4.22042e-05
0.000157882
4.71535e-05
-4.2396e-05
0.000182007
2.57136e-05
-1.14665e-05
-0.000161636
-0.000126194
0.000323398
-0.000160511
-5.1029e-05
-7.05791e-05
-5.76505e-05
-0.000230793
-0.000114516
-0.000342663
-0.000509513
-0.000364946
-0.000291523
-0.000421999
-0.000318534
2.34569e-06
4.56987e-05
4.73924e-05
-0.000169862
1.13148e-05
-0.000162992
-0.000347847
-0.000419505
-0.000379893
-0.000755503
-0.000489623
-0.000545157
-0.00083946
-0.000698336
-0.00097943
-0.00124104
-0.000868024
-0.000837803
-0.000900643
-0.00101191
-0.00114545
-0.00135988
-0.00122311
-0.00110524
-0.00109113
-0.00122198
-0.00134243
-0.00140002
-0.00130483
-0.000843873
-0.00127477
-0.00108963
-0.00129259
-0.000929526
-0.0008648
-0.000135702
-8.3087e-06
-7.68342e-06
-2.92131e-05
-2.31801e-05
-4.03653e-06
-3.75749e-06
-3.00072e-06
-3.32875e-05
-0.000358145
-0.000890986
-0.000459222
-0.000232504
-0.000235125
-0.00101126
-0.000946083
-0.00188397
-0.00121925
-0.00132497
-0.00190019
-0.00141325
-0.00226212
-0.00237126
-0.00210182
-0.00199245
-0.00198516
-0.00217987
-0.00239675
-0.00206851
-0.0014755
-0.00226985
-0.00223121
-0.0018762
-0.00273539
-0.000727932
-0.00185432
-0.00241507
0.000792248
-0.000584496
-0.00175213
-0.000732558
-0.00179453
-0.000269221
-0.000132213
-0.000397034
0.000400744
0.000401231
0.000218895
4.73136e-05
0.000128201
5.83773e-05
0.000463347
0.000258685
0.000313636
0.000161051
0.000206923
0.000156882
2.19993e-05
0.000732497
0.000578842
0.000793902
0.000579517
0.000592469
0.000418432
0.000370687
0.000860763
0.000792015
0.00117181
0.00106565
0.000953561
0.000747033
0.00120269
0.000904927
0.00122829
0.00097005
0.00166536
0.00150452
0.0012676
0.00137232
0.000580185
0.000328408
3.86989e-05
-5.06423e-05
2.36502e-05
0.00020823
0.000410094
-3.38338e-05
-4.53187e-05
3.20608e-05
0.000101437
1.51257e-05
0.000154644
0.00055256
0.00120323
0.00113948
0.00111334
0.000939916
0.000975069
0.00107626
0.000861585
0.00166469
0.00124208
0.00176537
0.00155277
0.00148942
0.00148389
0.0012066
0.00224312
0.00187968
0.00252153
0.00231795
0.00219704
0.00173545
0.0024442
0.00258371
0.00229084
0.00303203
0.00205772
0.00260606
0.00204431
0.00230086
0.00102869
0.000926254
0.000172222
0.00152924
0.000741944
0.00147807
0.0017561
2.80125e-05
-1.66406e-05
2.69161e-05
0.000401265
9.69834e-05
-0.000141224
-0.0003967
2.69751e-05
-0.000165482
-7.26284e-05
0.000312522
0.000559044
-0.000142743
-0.000310424
-0.000361104
0.000190376
0.000651344
7.34285e-05
0.000338342
0.000847744
0.000773705
0.000768509
-1.45802e-05
-1.87147e-05
-1.57533e-05
-1.60898e-05
-1.31726e-05
-2.19279e-05
-4.52408e-06
2.88399e-06
-8.48523e-06
8.05713e-05
-1.01789e-05
-3.40743e-05
-0.000474166
-0.000541878
-0.000599554
-0.000784494
0.000406274
0.00179511
0.00100959
-0.000180298
0.000824958
0.00217658
0.00181965
0.0018539
-0.000862176
0.000663725
0.00125976
0.00213971
0.0020074
-0.00194768
-0.000717608
-0.00174735
-0.0010455
-0.000421764
-0.000125871
-0.000320378
7.16603e-05
2.73329e-05
3.5605e-05
-8.27592e-05
-8.04922e-05
-0.000191806
-0.000419058
-2.19008e-05
-3.34141e-05
1.30392e-05
-0.000213829
-0.000582713
0.000218057
0.000196411
0.000219691
-0.000729325
-0.000966785
-0.000596374
-0.000161293
0.000100842
-0.000661689
-0.00122665
-0.000805575
1.13502e-05
0.000368404
-0.000349266
-0.00110379
0.000604635
0.000470515
0.000347486
-0.000441972
-0.00142726
0.000722766
0.000596792
0.000508038
-0.00155156
-0.00197052
-0.00137524
-0.000331475
0.000209566
-0.00149214
-0.00233146
-0.00164529
-0.000229081
0.000936904
-0.000996109
-0.000490025
0.000208563
0.000463651
0.000435948
3.13939e-05
1.48871e-05
-0.000136426
6.51217e-05
5.58424e-06
2.28012e-05
-3.54092e-05
0.000135816
-3.12915e-05
-1.12613e-05
-1.26199e-05
-3.7052e-05
-1.49992e-06
0.000293344
0.000144043
0.000468577
-0.000231781
-0.000134688
-0.000544271
-3.24637e-05
0.000425842
8.55098e-06
0.000163866
0.000130262
-0.00104492
0.000615845
0.000169475
-0.000559814
0.000287855
-0.000206642
-0.000310408
0.000587212
6.2764e-06
-2.40919e-05
0.000141548
-1.24123e-05
-0.000188568
-1.07327e-05
-7.43194e-05
-2.60979e-05
6.42077e-05
5.93994e-05
0.00014107
0.000122362
5.38633e-05
0.00019984
-9.40666e-05
0.000182772
3.3868e-05
-0.000143696
-0.000290512
-0.000323277
-5.1784e-05
-0.000276592
5.16775e-05
0.000124671
0.00021116
0.000220435
0.00027969
1.03793e-05
0.000124012
0.000785663
2.00445e-06
0.000123881
-0.000214129
0.000145705
-0.000111664
-4.05362e-05
7.46401e-05
6.36987e-05
-1.19595e-06
-3.99505e-05
-5.46293e-05
-0.000334052
-0.000258299
-0.000314964
-5.0738e-05
0.000415874
0.000247879
-7.34723e-05
0.000298526
-0.000630499
-0.000696502
-0.000760201
-4.11536e-05
0.000529055
-0.000932468
0.000505208
-8.47941e-05
-0.000859736
-0.000635548
0.00065462
-9.58285e-06
0.00056372
0.000699025
0.000649434
0.000185601
0.00098288
0.000293728
0.0011275
0.000311762
0.000757105
0.000683135
-0.000566337
-0.000698798
-0.000250305
-0.000246282
-0.000348876
1.02206e-05
-0.000920306
-0.000408276
-0.000978223
0.000521192
-3.14178e-06
0.000365544
0.00042983
0.000437331
5.93069e-05
-4.11837e-06
-3.08341e-05
-0.000853058
0.000537019
-0.0007657
-0.000198293
-8.61322e-06
0.000990347
0.000391366
-0.000246192
-0.000349851
-0.00187416
-0.00125839
-0.00197046
-0.000741114
0.00111907
-0.000774427
-5.0666e-05
-0.00131029
-0.000780386
-0.00053388
-0.000658908
-8.26437e-05
0.000962914
-0.000890229
0.000619026
-0.000143678
-0.000671549
-0.000523152
0.000917036
-2.63655e-05
0.000956435
-0.000411027
-0.000429619
0.000221336
3.47847e-06
0.000601502
0.000669761
-0.000839688
-0.000214193
-0.000826496
0.000488663
-7.67141e-05
0.000716489
0.00111096
0.000928517
0.000116023
0.000821249
-0.000118381
0.000805357
0.00124313
-3.71761e-05
0.000899385
0.00149337
0.000403916
0.00149674
-0.0013861
-0.00165871
-0.000561121
-0.000661613
-0.000843391
4.49982e-05
-3.08832e-05
-1.59546e-05
-1.94255e-05
4.61341e-05
4.39261e-05
2.48478e-05
0.00134748
0.000469705
0.00167916
-0.000120071
-0.000161977
3.44374e-05
1.02212e-05
-7.17788e-06
2.90026e-05
-0.000177732
3.47159e-05
-3.95324e-05
-3.61923e-05
8.75448e-05
0.000803198
-0.000343235
-0.000550045
-0.000750254
0.000534537
0.000327151
-2.46048e-05
-0.000186134
-0.0012665
-2.52957e-05
1.19959e-05
0.000338935
0.00076274
0.00126737
-0.000825373
-1.11843e-05
-0.00125751
0.000290314
-3.94121e-06
0.000690272
-0.00124486
0.000134091
0.00154973
-0.000683304
-0.00024756
4.08685e-05
-9.5685e-05
0.000488208

SCALARS S_zz double 1
LOOKUP_TABLE  table7
-0.000245492
-0.000846532
-0.000821069
7.18234e-06
1.67542e-05
-0.0023937
-0.00240145
-0.00110912
-0.000682218
-0.00323158
-0.00130267
-0.00147715
-0.000465047
0.000347629
0.00258662
0.000627903
0.00150635
2.55644e-05
0.000219058
0.0010528
0.0036709
0.00234067
0.000434348
0.00260863
0.00153488
0.00129163
0.000445881
0.000880332
-0.000210333
-0.000605695
-0.000210075
-0.000349465
-0.000204898
-0.000944726
-0.000778186
-0.000956842
-0.00170643
-0.00109025
-0.000744967
-0.00174852
-0.000713874
-0.000142379
-1.77644e-05
-1.33498e-05
-7.5716e-05
-0.00220733
-0.00193418
-0.00205474
-0.00391146
-0.0023934
-0.00171185
-0.000456516
-0.00280809
0.000341642
0.000402967
0.000490469
0.000420249
0.000393315
0.00080074
0.000742232
0.000906793
0.00167665
0.000747339
0.00147079
5.78904e-05
0.00021887
4.47038e-05
0.000181962
0.00138283
0.00141998
0.00157224
0.00181157
0.00200642
0.00373311
0.002909
0.00328015
0.00197488
0.00261364
0.000157529
0.000539537
-0.000167186
-0.000354467
0.000508931
5.01469e-05
1.82489e-05
4.15681e-05
-0.000867141
-0.000388579
0.00115793
0.000643864
-0.000675778
-0.000522763
9.83783e-05
2.35233e-05
-0.000192429
-0.000809846
0.000597196
0.000224456
-0.000483566
-0.00136458
0.000461677
0.000383363
8.75777e-05
-1.50637e-05
-6.74341e-05
0.000249102
0.000199142
-2.93101e-05
0.000189778
-7.63668e-05
-0.000101052
0.000534247
7.31109e-05
0.00140198
9.16464e-05
-0.000262823
-9.70192e-05
-0.000112798
-0.00026983
-5.1014e-05
-0.00029694
-0.000535471
-0.000429976
-0.000460459
-0.00063805
-0.000475305
-5.8742e-05
-0.000232192
-0.000428552
-3.11406e-05
-0.000314806
-0.000276205
-0.000334291
-0.000683183
-0.000755756
-0.000738367
-0.000806193
-0.000879252
-0.00125428
-0.000890021
-0.00146934
-0.00202268
-0.000698461
-0.000957801
-0.0013568
-0.00130434
-0.00150219
-0.00147163
-0.000751478
-0.00130736
-0.00137207
-0.00103048
-0.000858125
-0.000915772
-0.000782894
-0.000518498
-0.00151156
-0.00123797
-0.00133658
-0.00195572
-0.00134322
-0.000265392
-0.000103911
-0.000127393
-2.13834e-05
-6.26002e-06
-3.60306e-05
-3.04933e-05
-1.04269e-05
2.90733e-07
-0.000414169
-0.00089071
-0.000386529
-7.6644e-05
2.3019e-05
-0.00177028
-0.00208365
-0.00189257
-0.00215026
-0.00207801
-0.00284018
-0.00210075
-0.00320472
-0.00440147
-0.0017556
-0.00213881
-0.00281944
-0.00285779
-0.00349003
-0.00330074
-0.00199798
-0.00282583
-0.00306653
-0.0020297
-0.00183451
-0.00137756
-0.00230733
-0.00232021
-0.00052741
-0.00140414
-0.00179629
-0.000461684
-0.00217919
0.000998433
0.000569216
0.00129199
0.000416383
0.000480771
0.00041545
0.000329799
0.000502303
0.000511656
0.000537434
0.000463882
0.000310284
0.000403983
0.000328603
0.00037929
0.000452236
0.000648417
0.000732889
0.00114515
0.000774224
0.000849659
0.000613404
0.000526598
0.000748512
0.000855134
0.00128338
0.00153091
0.00133629
0.00136026
0.00190365
0.000896149
0.00111725
0.000797097
0.00137982
0.00119646
0.00128693
0.00168326
0.000515563
0.000375435
1.04986e-05
5.25753e-05
0.00012225
0.000385538
0.000576322
2.94719e-05
0.000113948
0.000155548
0.000158825
0.000119888
0.000244542
0.000293284
0.00157727
0.00157684
0.00101955
0.00126523
0.00117681
0.00146447
0.0015651
0.00126361
0.00149726
0.00216784
0.0017049
0.0016927
0.0014282
0.00154459
0.00188198
0.00190433
0.00277847
0.00360349
0.00284476
0.00295776
0.00412138
0.00308582
0.00301148
0.00311695
0.00388616
0.00329116
0.00302325
0.00369128
0.00270236
0.00312872
0.000846464
0.00155644
0.00253797
0.00328351
0.00301212
-0.000120393
0.000170726
-0.000270053
0.000386735
0.000332188
0.00068427
0.00161496
9.18759e-05
-0.000725549
-0.000131955
0.000160487
0.000493403
-0.000703693
-0.00066425
-0.000641055
-0.000183049
0.000383207
-6.30673e-05
-6.1379e-06
0.00113311
0.000751563
0.000493736
-3.14019e-06
8.14448e-06
2.40025e-05
4.08577e-06
1.74105e-05
7.80816e-05
4.89824e-05
-8.18912e-06
1.48979e-05
0.000136119
5.77518e-05
6.63185e-05
-0.00169258
-0.00162197
-0.00140039
-0.00148452
-0.000531916
0.000769994
0.000772915
-0.000345104
-0.000115592
0.00290252
0.00160852
0.00115326
-0.000891401
0.000932019
0.00169657
0.00239901
0.00247422
-0.00185173
-0.00159359
-0.00203469
-0.000275241
0.000508843
-0.000167245
-0.000186908
-0.000489446
-0.000390953
-0.000166869
0.000478935
0.000410798
6.84326e-05
-0.000266339
0.000264899
0.00031184
0.000472252
-2.21077e-06
-0.000469026
0.000391491
0.000301986
0.000405731
-0.00102734
-0.00132481
-0.000596143
-0.000192694
0.000295686
-0.000489888
-0.000314849
-0.00100149
-3.10057e-06
0.00104655
0.000306701
-0.000732866
0.00110526
0.000994249
0.00143287
-6.63582e-05
-0.00129808
0.000986815
0.000683001
0.000931875
-0.00196037
-0.00275736
-0.00138704
-0.000336799
0.00064702
-0.00117727
-0.00090738
-0.00220665
-0.000128371
0.00183795
-8.29588e-05
-0.000774144
0.00137511
0.00140562
0.000510981
2.81587e-05
-0.000157239
0.000696141
0.000304829
0.000535143
-0.000205967
3.44674e-06
-0.000592267
-2.48922e-05
3.86369e-05
1.12668e-05
-5.29014e-05
-0.000249719
0.000199525
0.000138412
0.000369656
-0.000127636
-1.47543e-05
-0.000567272
-0.000188998
0.000259057
1.78738e-05
2.37926e-05
4.05892e-05
-0.00112094
-0.000768896
-0.000921226
-0.000306933
0.000313951
0.000190798
0.000740915
0.000450369
-7.62431e-05
-1.2523e-05
0.000409215
0.000232152
-0.000139576
-4.63266e-05
-5.33341e-05
0.000150158
0.000105736
0.000283394
0.000345908
0.000365063
0.000126187
0.000335323
6.27115e-06
0.000387737
0.000247218
-0.000126907
-0.000523036
-0.000347245
5.80848e-05
-0.000366621
0.000130873
0.000268628
0.000305947
0.000237473
0.000271829
-0.000150116
0.000307262
0.000706557
0.000139099
0.000125731
-0.000334113
7.84357e-05
-0.000490018
-0.000118497
1.74756e-05
0.000109057
1.68899e-05
2.60186e-06
-0.000105779
-0.000374768
-0.000633432
-0.000474413
-9.07232e-05
0.000596176
0.00029846
-0.000236306
0.000328859
-0.000278839
-0.000279519
-0.000122615
0.000700451
0.00121922
-0.000302987
0.000956953
0.000343182
-0.000625961
-0.000734308
0.00115354
0.000402726
0.00117488
0.00152927
0.0011208
0.000540754
0.00132043
0.000639747
0.00112142
0.000302898
0.000685682
0.000705201
-0.00068056
-0.000976442
-0.000235659
-0.000503687
-0.000469178
0.000132985
-0.00155401
-0.0008071
-0.00144203
0.000223225
-8.37332e-05
0.000523374
0.000413699
0.00046435
-0.000190081
8.21887e-05
-0.00123786
-0.000980033
0.00194617
-0.000520306
0.000855202
0.00171598
0.00112829
0.000922272
-0.000342148
-0.000173863
-0.00326816
-0.00174957
-0.00300327
-0.00135127
0.00196692
-0.00105202
0.000391124
-0.000648268
-0.0010113
-0.00154786
-0.0012907
-0.000236824
0.00119022
-0.00106967
0.00118666
1.15134e-05
-0.00109799
-0.00143006
0.00103984
-0.000275693
0.000965658
-0.000564975
-0.000349659
9.09852e-05
-0.000243532
0.000894468
0.000984244
-0.000793081
0.000454432
-0.00024088
0.00102639
0.00016539
0.00112511
0.00228314
0.00182367
0.000846257
0.000638365
-0.000514469
0.000438325
0.00038884
-0.000283039
0.000955665
0.00252915
0.00101121
0.00330289
-0.00166917
-0.00210937
-0.0004942
-0.00126456
-0.00115087
0.000197326
4.92038e-05
1.27088e-05
-3.29462e-05
4.57611e-05
-3.82995e-05
-0.000147986
0.00285004
0.0014585
0.00264068
-0.000155971
-0.000212388
-1.468e-05
0.000153985
0.000282205
-0.000211664
-0.000207212
9.3147e-05
8.35942e-05
3.38333e-05
0.00038191
0.000879135
-0.00047907
-0.000935848
-0.000954247
0.000670076
0.000332798
-0.000111363
0.000614018
-0.00207178
6.61296e-05
0.000330873
0.000791062
0.000855551
0.00145477
-0.00118823
-1.15874e-05
-0.00137113
0.000319465
-2.77902e-05
0.00122021
-0.00194083
0.000341522
0.0022035
-0.000473879
-0.000343059
-5.72409e-05
-0.000425724
0.00253769

SCALARS S_xy double 1
LOOKUP_TABLE  table8
8.08299e-05
0.000495294
0.00116631
-1.17865e-05
6.32156e-05
-0.0012224
-0.000379436
-0.00915224
-0.00611294
0.00043327
0.000503801
0.000291122
0.000182706
0.000138293
0.00181651
0.000300222
-0.00237156
-3.71855e-06
-1.70228e-05
0.00266846
0.00113087
-0.00132046
-0.00123632
-2.09601e-05
-0.000917656
-0.000378675
-0.000439951
1.25542e-05
0.000112178
0.000318567
8.26703e-05
0.000270548
0.000392787
9.77506e-05
0.000618372
-0.000335492
0.000521985
0.00101578
0.000473018
0.000725384
-0.000827114
0.000117432
4.92902e-05
0.000216396
-0.000349366
-0.000289195
0.00054132
-0.000849851
0.000512269
0.00109212
0.000149053
0.00787978
-0.00241226
0.000598098
0.000166155
0.000217165
-0.00023287
-0.000200251
-0.000234056
-0.00028384
-4.40207e-05
0.000238244
-0.000663406
0.000120048
-0.000382592
1.58815e-05
-8.63251e-06
0.000313883
-0.00115431
-0.000663756
-0.000178222
0.00023495
0.000614622
0.000597343
-0.00022291
0.000396591
-0.00111489
-0.000924657
2.41881e-05
-0.000154574
6.70888e-05
0.000169397
-0.000561341
3.6882e-05
-2.12761e-05
7.85465e-06
0.000696165
0.000279974
-0.000368562
-0.000852055
0.000515653
1.22099e-05
-0.000177844
-0.000225311
0.000199424
0.000204859
-8.18054e-06
-4.48276e-05
0.000505511
0.000316088
-0.000712422
-0.00121813
-1.05594e-05
3.57388e-05
7.73178e-05
-5.54774e-05
-0.0001979
-9.13665e-05
0.000122701
6.65765e-05
0.000300337
-0.000880778
5.62377e-05
-0.000696282
0.000228539
0.000446124
-0.000356241
4.84332e-05
0.000117972
-1.70046e-05
0.000187055
0.000226518
0.000241477
0.000254662
0.00034012
0.000107793
8.35651e-05
0.000162062
0.000438915
0.000425013
0.000313555
0.000251956
0.000302179
0.000335374
0.000565264
7.07718e-05
0.000371382
0.0002244
0.000140411
0.000665914
-0.000321825
0.000741601
-0.000145271
-0.000138496
-7.60075e-05
5.21679e-05
0.000365072
0.00125414
0.0003816
0.000519862
0.000952142
0.00128803
0.00142773
0.000491848
1.98691e-05
0.000199257
0.000836397
0.000737432
-0.000123493
-0.000158656
-0.00183681
0.000819388
0.000240822
0.00122543
2.61507e-05
2.47847e-05
5.26459e-05
3.47511e-05
-9.6028e-06
1.11348e-05
-0.000164484
-0.0030622
-0.00091473
-0.000231264
-4.36558e-06
0.000124462
0.000163094
0.000203557
0.000650129
-0.000355579
-0.00127234
0.000126137
-0.00118712
-0.000261322
-0.000284008
-0.000426123
-0.00025601
-0.000202677
0.000543925
0.00125805
-0.000734557
0.000839332
0.00151093
0.0014294
-0.000132434
-0.00231234
0.000182511
-0.00149987
-0.00422549
0.00394728
0.00235019
0.00132363
-0.00466738
0.000961722
0.000513463
0.000802237
0.000299674
0.000256188
0.000369795
0.00013384
0.000131975
2.19562e-05
-0.000193396
-5.82211e-05
-0.000206805
-0.000459622
-8.40542e-05
7.35035e-05
-7.4473e-05
0.00015661
-0.00035984
-0.00021871
-0.000388736
-0.00049385
-0.000308877
-0.000306812
0.000244692
-0.000201078
-0.000536592
-0.00033829
-0.000397307
-0.000497868
-0.000222838
-0.00198417
-3.29363e-05
0.000425783
0.000895689
0.000463063
0.000321703
-3.69673e-05
-0.00239653
-0.000940128
-8.32616e-05
-0.000100699
-0.000169696
-0.000109059
0.00101321
-1.82651e-05
-1.36935e-05
-3.47242e-05
-1.64193e-05
1.47947e-05
0.000461863
0.00147289
0.000293828
-0.000555949
-0.000863577
-0.00119785
-0.000743694
-0.000399652
-0.000844476
0.00130006
-0.000673387
0.000354463
0.000134699
-3.87533e-05
-0.000766341
-0.000381932
0.000904043
6.19968e-05
0.000963532
0.000856229
0.000281073
-0.000687147
0.000282779
-5.24412e-06
0.000547443
-0.00158766
-0.00126272
-0.000404855
0.000810676
0.0013605
-0.00420483
-0.00165266
0.00239871
-0.00159004
0.00158435
0.000989585
-0.00074585
9.01933e-05
-0.000122295
-1.89862e-06
6.89898e-05
0.000220101
0.00019302
0.000629518
-5.66031e-05
0.000430137
-5.96491e-05
3.31688e-06
6.8865e-05
0.000665505
0.000362821
0.000405962
8.33297e-05
0.000533799
0.000242865
-0.000406061
-0.00143621
-0.000463109
5.08646e-05
5.07513e-07
-3.48026e-05
1.66537e-05
1.44636e-05
2.76555e-05
4.65519e-05
1.74723e-05
3.9387e-05
-1.937e-05
-7.25009e-06
-1.7212e-05
1.96795e-05
0.00130966
-0.000758721
-0.00048909
0.000255792
0.000501681
0.00206321
0.00173238
-0.000696424
-0.000573081
0.000273996
0.00013044
0.000727015
7.38881e-05
-0.000525072
-0.00136293
-0.000872751
-4.92677e-05
-0.00118637
-0.00141508
-0.00010747
-0.000180334
0.000797185
0.000113274
2.68231e-05
0.000282645
0.000212329
-0.000100294
-0.00013548
-0.000106611
-0.000176424
7.33944e-05
-0.000182155
-0.00041517
-0.000564089
0.000119423
0.00012861
-0.000321511
0.000107317
8.56681e-05
-0.000190173
0.000220353
-6.61663e-05
-0.000111531
0.000160126
0.000669503
0.000249171
0.000665958
0.000754318
-0.000238924
2.05439e-05
-8.03089e-06
-0.000545684
-0.000101295
-0.000995616
0.000677195
0.000460903
-0.000334372
0.00053204
0.000347634
-0.000445562
0.00016604
-0.000161707
-0.000143842
0.000388359
0.000732834
-0.00251461
0.000875467
0.000473275
-0.00051308
-0.00175112
-0.00218844
-0.000388596
-0.00207923
-0.000215174
-7.92503e-05
4.77779e-05
2.67852e-05
-0.000125945
4.80089e-05
8.17886e-05
-8.72254e-05
0.000175521
-9.81106e-06
-1.68443e-05
-1.5081e-06
0.000331989
0.000781589
-7.66137e-05
-0.000242975
-0.00104345
-0.000133179
4.93489e-05
-0.00137919
0.000159349
0.00145188
0.000110087
0.000272831
-2.34754e-05
0.00537813
-0.00394151
0.000484536
0.00256869
-0.0005355
-0.000272186
4.68945e-06
-0.00271102
-4.35118e-05
3.27119e-05
-0.00040272
-0.000217928
2.61668e-05
6.46213e-05
4.00208e-05
-5.15818e-05
-7.3953e-05
-2.51572e-05
-0.000191656
0.000103677
-1.77548e-05
0.000176005
-7.58482e-05
-0.000286578
-0.000217075
-5.73473e-05
0.000156539
0.000210378
-8.14486e-05
6.21104e-05
-0.000100907
-0.000162716
-0.000117256
-0.000134161
-0.000216668
3.99425e-05
0.000271955
0.000995026
-6.15487e-05
3.54447e-05
0.000398103
0.000449805
0.000568021
0.000152211
4.39972e-05
-1.0045e-05
-5.0639e-06
1.33696e-05
0.000106585
0.000189675
0.000524137
0.000327098
0.00021634
-1.13576e-05
1.44069e-06
0.000242777
2.08285e-06
0.000251347
-0.000358637
-0.000346965
-0.000454347
-0.00100174
0.000526305
-9.17385e-06
0.000365066
0.000585582
0.000369613
-0.000255263
-0.000435617
-0.000812497
-0.000124396
-0.000287456
-0.0002471
0.00031938
0.000464962
0.000397731
-7.86476e-05
-0.000204905
-0.000781976
0.000170706
4.49055e-05
5.70896e-05
0.000352814
0.000348822
-4.36727e-05
0.000517969
0.000372331
0.000345787
-0.000138438
-0.000121414
-0.000372183
-0.000188392
-0.000203338
1.9475e-05
-0.000325012
-3.77784e-05
-0.000183345
-0.00192373
-0.00151233
-0.000967125
0.000884487
-0.000847114
-0.00031353
-0.00117842
-0.000365723
0.00084323
-0.000345226
0.00057397
0.000470423
0.000332692
0.000978465
0.000372174
-0.000362328
0.000458415
-0.000103656
0.000256763
0.000370599
0.000530938
0.000873622
-0.000758611
0.000171419
0.000286321
-0.000246655
4.91634e-05
0.000107943
0.000321462
-0.000913678
-0.000444739
4.20802e-05
-0.000444474
-0.000243371
-0.000882907
-0.000474371
-0.000697821
-0.000400382
-0.000651243
-0.000291249
-0.000127275
0.000368352
-6.68928e-06
-0.000310496
0.000143285
-0.000308536
0.000173326
0.000243988
-0.00060873
-0.000661463
-9.37845e-06
-0.000634304
-5.46595e-05
0.000114402
-0.000468339
2.80627e-05
7.09079e-05
0.000230382
-9.65686e-05
3.29159e-05
3.8321e-05
0.000230551
-3.21766e-06
-1.58416e-05
0.000103885
0.00170527
0.000726573
-0.000464488
-0.00012205
0.000103745
0.000242885
-4.98002e-05
-1.71011e-05
0.000117118
8.08511e-05
-0.000180888
3.74561e-05
0.000112491
0.000535577
4.12908e-05
0.000136471
-3.83308e-05
0.000676373
-0.000700892
-0.000111692
-7.55327e-05
-0.000650931
0.00156194
0.000261952
-0.000545961
-0.000301971
-0.000445746
-0.00107668
-0.000114333
-3.76445e-05
0.00221291
-0.000372024
4.54715e-05
-0.000159751
-0.000160823
-7.70225e-05
0.000175051
0.000202714
-0.000409343
-4.44629e-06
-0.000301322
0.000400154

SCALARS S_yz double 1
LOOKUP_TABLE  table9
-0.000586828
0.00017453
0.000148704
2.84758e-05
9.86939e-05
0.000816877
-0.000348758
0.000330191
1.76041e-05
0.000533785
0.000135018
0.000112577
0.000128758
9.00948e-05
-0.00246567
-2.68693e-05
0.000691652
-2.49523e-05
0.000124182
0.000141733
-0.0018308
0.000105696
0.00122164
0.000222656
0.000541906
0.000131285
0.00022524
0.000339685
0.00018637
2.02369e-05
8.85979e-05
0.000700611
0.000256418
-1.55992e-06
-0.000289815
0.000125786
0.000705019
9.61837e-06
5.00908e-05
5.52327e-05
-0.000204326
-0.000159073
-4.07143e-05
0.000265068
0.000767148
-6.94584e-05
-0.000811615
0.00027213
0.00127412
0.000855405
0.00044359
0.000512641
-0.00125825
-0.000168096
6.8603e-05
-0.000214946
0.000113141
-1.6464e-05
-0.000217634
0.000132635
-0.000217092
-0.000724255
-0.000150077
-0.000256342
0.000555482
-0.000213926
-0.000184016
5.57614e-05
2.81076e-05
-0.000202975
-0.000370495
0.000153637
-0.000808481
-0.00146724
-0.000516246
-6.9557e-06
0.000394932
-0.000745398
-5.87906e-06
-0.000960571
0.000304991
-9.21696e-06
0.000338867
-6.88013e-05
4.58077e-05
6.23928e-05
-0.000627919
0.000586563
-0.00190446
-0.000376337
-4.5565e-05
0.000257246
0.000171169
0.000331113
0.000302573
0.000979436
0.000201488
9.07682e-05
0.000482646
0.0020474
0.000473008
-0.000229778
0.000192968
0.000201243
0.000309626
0.000697049
5.5036e-05
0.000241871
-0.000432099
-0.000467329
-0.000138195
4.17339e-05
5.75278e-05
7.7247e-05
-0.000130824
-0.000624356
0.000287696
-0.000105099
8.7019e-05
-4.57912e-05
0.000164834
-3.86943e-05
5.80494e-05
8.69392e-05
5.37719e-05
0.000165241
-0.000176183
0.000224357
0.00061156
0.000285576
0.000447473
0.000226123
0.00027357
-9.73726e-05
-0.000108219
7.35423e-05
-3.24672e-05
-0.000149576
0.000147263
-0.000209511
0.000369813
0.000986994
0.000163317
8.39631e-05
0.000320214
4.26943e-05
0.000136712
0.000428604
-5.52197e-05
2.35558e-05
0.000233089
1.59517e-05
0.000212762
0.000122048
-8.43051e-05
-0.000283024
-0.000465236
2.82494e-05
0.000264066
0.000191142
0.000542976
1.3135e-05
6.59542e-05
0.000830387
6.09002e-05
-6.01681e-05
-8.92709e-05
9.86202e-07
4.11454e-06
5.90556e-05
-0.00018215
0.00174743
0.000267053
0.000194846
0.000351242
-0.000379589
-0.000429232
7.1767e-05
-9.96292e-05
-0.000525664
7.11761e-05
-0.000842522
0.000611564
0.00196068
0.000320327
8.23659e-05
0.000495262
0.000375353
0.000495822
0.00161559
0.000189103
0.000509567
0.000708145
0.000732433
0.000726047
0.000497573
-0.000459733
-0.00119578
0.00169952
0.000685914
-0.000430023
-0.000625564
-0.00180347
-0.00101562
-0.000320254
-0.00124275
3.51717e-05
0.000143784
6.18533e-05
0.000150558
0.000105946
0.000558085
0.000132953
-1.24131e-05
0.000115931
2.84544e-06
1.79147e-05
1.72388e-05
0.000159161
-0.00016458
3.77149e-06
-0.000351331
0.000189745
-3.30904e-05
4.56327e-05
9.03355e-05
-0.000253528
-5.671e-05
-0.000497438
-0.000597735
-0.000360529
-0.000344579
-0.000897583
0.00062763
-0.000443055
0.000101797
0.000188909
-1.56704e-05
-0.000421785
-0.000566104
0.0016397
0.000302551
9.35543e-05
-0.00010436
5.27478e-05
-0.000127406
-2.76395e-05
-0.000101603
-0.000233289
-5.7791e-05
4.40375e-05
-0.000312819
-0.000322717
0.000124073
0.000262449
-0.000302552
0.000158361
-4.96468e-05
-0.00046807
-0.000376316
-0.000326822
-0.000247702
0.000162678
-0.000397389
0.000509649
0.000187293
8.40662e-06
0.000245435
-0.00107478
-0.000503953
-0.00127889
-0.00143217
-0.00113186
-0.000973818
-0.00184672
-0.00112309
-0.000591131
-0.000149783
-0.000153733
-4.38714e-05
-0.000445224
-0.000817504
0.000491138
0.000129426
-1.35707e-05
-2.06739e-05
-0.000497322
-0.000452738
-0.000846778
-0.00032172
-0.000456888
-0.000960469
0.000142169
-0.000113013
-0.00066888
-0.00177567
4.66108e-05
0.000228788
0.000176993
0.000280919
9.69009e-05
5.76801e-05
-6.95355e-05
0.000244853
0.000203846
-0.000129736
0.000104656
-9.39799e-05
0.00044452
-8.96841e-05
-0.000200838
-1.54346e-05
2.44978e-05
-3.11852e-05
-5.88064e-05
-4.27653e-05
-3.81882e-05
4.61716e-06
7.09869e-05
-8.79283e-05
9.53886e-05
-0.000113405
-6.6178e-05
6.38882e-05
0.000678704
-0.000986276
1.69206e-05
0.000183574
-0.000619108
0.000174677
-0.00193569
-0.00121302
-0.00146385
-0.000849609
-0.000823953
-0.000561726
-0.0009479
4.11811e-06
-6.78552e-05
-0.000885674
-0.00106657
-0.000412192
-0.000372235
-0.000693124
-0.000509661
0.000213567
0.000150441
0.000478474
0.000338733
0.000326849
0.000165706
0.000208051
8.08916e-05
0.000114146
9.76409e-05
6.59117e-05
0.000222826
0.000318962
0.000130536
0.000368006
0.000321741
0.000432677
0.000415387
0.00028741
0.000279373
0.000538899
0.00109449
0.000182963
0.000249907
0.000480715
0.000889126
0.000669577
4.86141e-05
-0.0001517
-8.14886e-05
-5.10842e-05
0.000133811
0.000219093
2.42722e-05
0.000619058
0.000605657
0.000866395
0.000876818
0.000988914
0.000522154
0.00109756
0.00213185
0.000794257
-4.68219e-05
0.00159954
0.00158888
0.000802065
-0.000689419
-0.000655472
-0.000700039
-0.000773423
-0.00037718
-0.000552965
-0.000304759
-0.000747216
6.75863e-05
0.000287535
0.000387985
0.000371794
0.000688105
6.9072e-05
4.80288e-06
9.02323e-05
0.000361895
0.000411319
0.000858124
0.000380266
0.00100476
0.000436004
0.000317818
0.000771891
9.61808e-05
9.16972e-05
0.000276271
0.000122528
0.000117896
0.000548699
0.000546803
0.00107647
0.000395702
0.00041191
-6.32302e-06
-9.88799e-05
0.000727791
-0.000144107
0.000139091
0.000120607
0.00012649
0.000140514
0.000144669
0.000176571
0.000273119
8.77857e-05
0.000196399
4.17705e-05
0.000170089
-0.000112643
8.4273e-05
5.11455e-05
0.000212473
9.56316e-05
0.000119245
0.000236048
0.000102898
0.000236305
9.91381e-05
-2.89351e-05
0.000101863
8.40067e-05
0.000211253
0.000274064
0.000391836
-0.000318148
-2.05206e-05
-3.8326e-05
-8.87666e-05
-0.000205167
-0.000385476
-0.000436
-0.000523029
-0.000248035
-9.22316e-05
-0.000301225
-0.000197706
-0.00031094
4.48047e-05
-6.58235e-05
-0.000105647
3.19007e-05
9.76597e-06
0.000328351
0.000310435
0.000259372
-9.53285e-05
-0.000269197
-0.00021886
-6.80101e-05
0.000280125
5.45595e-05
0.000103237
0.000192293
0.000197999
5.17745e-05
-0.000112591
3.48175e-05
-5.53233e-05
-0.000786765
-0.00031005
-0.000518688
-0.000291252
-0.000315873
2.97501e-05
0.000111576
-0.000239256
0.000111817
0.000121237
0.000257526
0.000349019
-0.000297441
-0.000301663
-0.00020687
0.00088303
0.000837611
0.000570171
-5.79744e-05
-0.000211514
-0.000303172
-1.94094e-05
-0.000232884
-6.62752e-05
-9.15158e-05
5.12077e-05
-0.000375074
0.000798865
8.10987e-05
0.000426992
1.89351e-05
7.37185e-05
-0.00043641
-0.000136076
0.000153577
0.00155141
-0.000122944
0.00125316
0.00171714
6.21246e-05
0.000691202
0.000523165
0.000273687
-0.000187633
-0.000372908
-0.000472792
-0.000243617
-3.22743e-05
-0.000287371
0.000204199
6.16247e-05
6.30799e-05
0.000403126
0.000335699
0.00024805
0.000251913
-5.83508e-05
-0.0004975
-0.000231959
0.000729827
0.000576452
0.000342568
9.20344e-05
0.000120144
-0.000252687
0.000314689
-1.744e-05
0.000217437
-0.000680312
-0.000509955
2.91918e-06
-0.000206595
-0.000163601
0.000222885
-0.000558258
-0.00117079
-0.000952983
-0.00115367
-0.00196999
-0.00175217
0.000134483
0.000263887
0.000537122
-0.000849174
-0.00100662
-0.000717737
-4.54442e-05
-9.34013e-05
-1.83103e-06
-0.00014947
-5.83101e-05
-0.000376881
-0.000162007
-0.000423532
0.000289631
-3.80049e-05
-0.000456894
-0.000298581
0.000103406
-0.000211622
0.000423572
7.84924e-05
0.000152718
-0.00044833
0.000268131
7.50335e-05
-0.000283109
-0.000140859
0.000380559
0.000347049
-0.00017007
0.000298766
-0.000143375
0.000193384
0.00112656
0.000253083
7.75293e-05
-0.000510767
0.000427172
-0.00107762
-0.000598667
-0.000226556
4.94011e-05
0.000153175
-6.12049e-05
-0.000112257
0.000694431
9.10036e-05
-0.000291329
-0.000273888
-0.000200647
-0.000215947
-0.000470723
0.000276011

SCALARS S_xz double 1
LOOKUP_TABLE  table10
0.00173358
0.00124855
0.00117529
4.50503e-05
-6.87272e-05
0.000519739
0.00136197
-0.00405538
0.0029823
0.000725287
0.00215846
0.00047096
0.00122362
0.00108256
0.00334946
0.000801012
0.00120477
3.98511e-05
-1.93724e-05
-0.000777843
0.000683664
0.00540918
0.00814213
0.000442228
0.0013356
0.000435564
0.000935006
0.00140395
0.00110417
0.00126712
0.00176664
0.000981289
0.000753174
0.00150349
0.0011607
0.00220392
0.00043879
-0.000229407
0.00131797
0.00184117
0.00156657
0.000118649
1.71581e-05
0.000139443
-0.000141759
0.00244488
0.000810104
0.00392711
0.000561435
-0.0010146
0.00102929
0.0031424
-3.54055e-05
0.000792172
0.000571766
0.000691574
0.00102265
0.00127397
0.000980495
0.000579974
0.00144767
0.000773402
-0.000156721
-0.000401383
0.000268812
0.000190965
5.41928e-05
-0.000192796
0.000934618
0.000688978
0.00106772
0.00065419
0.00145388
0.00108794
-0.00107562
-0.000636554
0.00374055
0.00162322
0.00193661
0.00232881
0.00194068
0.00236768
0.00179396
7.74012e-05
0.000132309
-7.65636e-05
0.00185742
0.00116116
0.00206806
0.00135824
0.00544686
0.0013957
0.00151465
0.001736
0.00146156
0.00111778
0.00139626
0.00242107
0.00163414
0.000410554
0.00172342
0.00464574
0.00114491
0.000216847
-0.000180592
0.00385662
0.00171314
0.00174511
0.000793689
0.000159342
0.00137937
0.00267604
0.00102127
0.00355989
0.00109194
0.00114123
0.00204301
0.00114098
0.00126012
0.00191916
0.00121
0.00114388
0.00125428
0.0013921
0.00140351
0.0020692
0.000716913
0.000755371
0.00145658
0.00115461
0.00112963
0.000943022
0.000877295
0.00140869
0.00103856
0.00160216
0.00103364
0.00135302
0.00232172
0.00203126
0.00158161
0.000643785
0.00191974
0.00178797
0.00144283
0.00116844
0.000478527
-0.000477131
0.000395617
-5.055e-05
-0.00021147
-7.7275e-05
0.000444968
0.00214326
0.00171762
0.00116725
0.00178741
0.00228028
0.00242724
0.00149186
0.0015722
0.000597106
0.000166956
0.000394109
-5.96353e-05
-2.73029e-05
3.44372e-05
7.97307e-05
4.88432e-05
5.88742e-05
0.000524154
0.000535908
0.000268976
-8.46869e-05
-0.000101847
0.00193515
0.000583463
0.00276022
0.0015062
0.00181959
0.00347979
0.00187645
0.00259167
0.000766081
0.0033982
0.00304391
0.00243425
0.00224884
0.000850693
-0.00139485
0.000863046
-0.000380023
-0.000742732
-0.000828041
-0.00132786
0.000509041
0.00151696
0.00116601
-0.00198962
0.00216693
0.00350681
0.00590124
-0.000382253
0.0018255
0.000855127
0.00185389
0.000929748
0.000746978
0.000751227
0.000777374
0.000995691
0.000965932
0.00130485
0.000844959
0.000793557
0.00127538
0.000875822
0.000684442
0.00139395
0.000463359
0.000225401
0.00141363
0.000689203
0.00070508
0.000439753
0.000256635
0.000955688
0.00110422
0.002039
0.000953048
0.0017874
0.00157978
0.000691821
0.000386344
2.0472e-05
-0.000159003
-0.000238476
0.000153279
2.83534e-05
-0.000964757
0.000542172
0.000113042
8.78359e-05
4.7751e-05
9.65936e-05
0.000141006
0.000363981
7.04058e-05
7.1731e-05
-1.62469e-05
-0.000154868
-0.000100393
-4.19355e-06
-1.5525e-05
0.000761916
0.000884533
0.000400546
0.00118427
0.000376953
-0.000387604
-0.000119989
-0.00107147
-0.000279067
0.00173481
0.000614586
0.000694964
-0.00124776
-0.00034418
0.000117828
0.0008617
0.00192261
0.000944129
0.00227087
0.00228001
0.000802404
-0.000123242
-0.000234727
3.04084e-05
0.00114385
0.000452026
-0.000268565
-0.00241628
0.00671582
0.00222615
0.00513705
0.00397094
0.000239957
-0.00134513
-0.000125224
0.00201439
0.00198494
0.00235452
0.00150869
0.00121089
0.0016331
0.0027088
0.00210071
0.00154891
0.00252936
0.00232735
0.001081
0.00130838
0.00314966
0.001959
0.0019758
0.0008709
0.00189625
0.0031186
0.00124916
0.00181569
0.00132713
8.21191e-05
7.33906e-05
2.32242e-05
3.15114e-05
0.00012904
0.000108985
0.000159613
-7.92747e-05
5.36052e-05
-6.39497e-05
5.54315e-05
6.70814e-05
-6.81101e-05
0.000621345
0.00326471
0.00147994
0.00124544
-0.000958865
3.40678e-05
0.00239288
0.00319699
0.00106179
0.0014755
0.000491672
0.000306683
1.38043e-06
0.00369214
-9.17168e-05
-0.0001241
0.00091638
0.00320264
0.00193109
0.00318872
0.00689312
0.00113563
0.00120258
0.00158486
0.00137134
0.00136967
0.00118992
0.00138957
0.0015418
0.00129761
0.00151318
0.0016508
0.00163247
0.00151823
0.00129702
0.000964755
0.00136094
0.00137652
0.00139979
0.000647446
0.00166257
0.00177619
0.000961327
0.000785211
0.00195168
0.000365595
0.000868975
0.000434741
0.00254195
0.00227811
0.0010631
0.00238146
0.00274646
0.00153293
0.00166172
0.00110804
0.00216841
0.00201034
0.00185174
0.000674549
0.00232987
0.00231671
0.000932873
0.000114183
0.00183975
-0.00030844
8.64129e-05
-8.37834e-05
0.00214008
0.00543347
0.00166149
0.00354788
0.00717223
0.0017764
0.00133361
0.00156422
0.000948934
0.00118367
0.000987777
0.00124602
0.00144023
0.000152796
9.44278e-05
0.00019778
0.000341919
0.000227998
0.000620313
0.000289499
0.000618043
-0.000184294
-0.000157501
0.000402513
0.000348933
0.000439445
-0.000183392
-0.000234744
-0.000249363
0.00567177
0.00155845
0.000230858
0.00467154
0.00679119
0.00438599
0.00470982
0.00350455
0.00164808
0.0013933
0.00165907
0.00177715
0.00144634
0.00100913
0.00123154
0.00129439
0.00141147
0.00131375
0.00144159
0.000877975
0.00142498
0.00102056
0.00177873
0.00117459
0.00189897
0.00201258
0.00171642
0.00125854
0.00168829
0.00151118
0.00186269
0.0016284
0.0017082
0.00121256
0.00163136
0.00191661
0.000367703
0.000738582
0.000238299
0.000372937
0.000414171
8.22009e-05
0.000354721
0.000260324
-0.000119626
-2.2412e-05
0.000110416
0.000210051
0.000314686
0.00124908
0.00106273
0.00121813
0.00131767
0.0013303
0.00109235
0.0015618
0.00129217
0.00194235
0.00127176
0.00148636
0.00314234
0.00320234
0.00117751
0.000789327
0.000894897
0.000165939
0.00113398
0.000733665
0.00144577
0.00214842
0.000914684
0.00106318
0.00178952
-0.000306004
-2.40544e-05
0.000247051
0.00045708
0.000230383
0.0003689
0.00132476
0.0015224
0.001658
0.00113583
0.00158841
0.00168912
0.000567709
0.00088453
0.000629025
0.00157691
0.00263112
0.0018757
0.00109814
0.00131316
0.00159361
0.00285154
0.00159936
0.00163404
0.00397798
0.00187093
0.00260397
0.00450676
0.0069333
0.00335457
0.00272762
0.00192444
0.000181929
0.00102819
0.000763469
0.000517941
0.000799542
0.000740452
0.000727801
0.00117727
0.00115752
3.35336e-05
0.00083096
0.00124974
0.00163984
0.00137466
0.00181879
0.00189321
0.00145805
0.00116233
0.00130318
0.0016269
0.00179975
0.00166784
0.00113522
0.00177242
0.00179959
0.00143217
0.00150696
0.00222484
0.00329676
0.00170919
0.00267319
0.00180758
0.00212316
0.000805223
0.0032642
0.00204807
0.00167552
0.00103855
0.000357524
0.000932887
0.00291664
0.00228001
0.00118046
0.00204071
0.00119591
0.0017704
0.00213242
0.0020694
0.000440226
0.00123683
0.0017796
0.000113232
7.82073e-05
0.000234791
-6.01848e-06
-4.64225e-05
0.000216273
-0.00124823
-0.000510756
0.000709919
-3.1787e-05
0.000469588
0.000327848
0.00144888
0.00127171
0.00114004
0.00161497
0.00207417
0.000277595
0.00173116
0.00192169
0.000211961
0.00140737
0.00145672
0.000162379
0.00207346
0.00134895
0.00195036
0.00276632
-7.65335e-06
0.00217721
0.0027426
0.00225785
0.00122415
0.00241761
0.00141343
0.000149525
0.00328667
0.000454493
0.000119647
0.00109351
0.00180911
0.0013143
0.000106528
0.00192645
0.000351763
-9.41756e-05
0.00186103
0.00213585

SCALARS S_Mises double 1
LOOKUP_TABLE  table11
0.00345533
0.00376822
0.00631165
0.000100261
0.000320767
0.0101014
0.0128314
0.0178283
0.0240625
0.0126104
0.0100291
0.00581997
0.00380358
0.00197826
0.00864657
0.00417867
0.00908151
0.000178781
0.000441821
0.00944764
0.0151924
0.0170944
0.0195474
0.0128095
0.00847905
0.00629269
0.00299813
0.00291766
0.00231026
0.00354728
0.00336884
0.00229861
0.00204964
0.00492128
0.00453443
0.00603485
0.00674137
0.00597692
0.00632977
0.00826212
0.00504979
0.000977256
0.000197987
0.000797189
0.00185074
0.0108405
0.00945773
0.0124852
0.0146248
0.0115176
0.00969227
0.0171538
0.0131526
0.00242545
0.00187293
0.00203817
0.00328357
0.00260463
0.00465062
0.00382334
0.00550134
0.00701925
0.00417408
0.00716858
0.00145396
0.00111221
0.000501938
0.00154817
0.00894764
0.00638239
0.010091
0.00973669
0.0114897
0.014585
0.0143538
0.014034
0.0156166
0.0118647
0.00351228
0.00454798
0.00415748
0.00473505
0.00508736
0.000234915
0.000268061
0.00044561
0.00670314
0.00628587
0.00880518
0.00790062
0.0114126
0.0026499
0.00272285
0.00333362
0.00306516
0.00425944
0.00395612
0.00606596
0.00561442
0.00789911
0.00629196
0.0103453
0.0022068
0.00103891
0.00119672
0.0102204
0.00306788
0.00325636
0.00301276
0.0010697
0.00299737
0.0055193
0.00475752
0.00943896
0.00971687
0.00526636
0.00519109
0.0022338
0.00258518
0.00349021
0.00295624
0.0034165
0.00308597
0.00316266
0.00372293
0.00416924
0.00148183
0.00158391
0.0030696
0.00241519
0.00246101
0.00222995
0.00269251
0.00409803
0.00380281
0.0047777
0.00396215
0.00446886
0.00669597
0.00637881
0.00624063
0.00788257
0.00527321
0.00542981
0.00579079
0.00551946
0.00596699
0.00670733
0.00529851
0.00543613
0.00585409
0.00641306
0.0070079
0.00805904
0.00594903
0.00432068
0.00858704
0.00744237
0.00775838
0.00852107
0.00733372
0.00276739
0.000809517
0.00286126
0.000461448
0.000209066
0.000314338
0.00027791
0.000148951
0.000224167
0.00240454
0.00725321
0.00289736
0.00103954
0.000766607
0.00878089
0.0095107
0.011012
0.00925188
0.00929852
0.0128278
0.0107886
0.013234
0.0158949
0.0116714
0.0115978
0.0119615
0.011881
0.0132759
0.0132939
0.010404
0.0116575
0.0127039
0.0113495
0.0142824
0.0135439
0.0120942
0.0119123
0.012359
0.0114347
0.0169071
0.0248568
0.0163315
0.00453807
0.002343
0.00466036
0.00278477
0.00275559
0.00221248
0.00191235
0.00217162
0.0023364
0.00394162
0.00253131
0.0028731
0.00297471
0.00239438
0.00186155
0.00270098
0.00398476
0.00385541
0.00565312
0.00465378
0.00435733
0.00332202
0.0028368
0.00442991
0.00471355
0.00744865
0.00685155
0.00655623
0.00590951
0.00738914
0.00605985
0.00560787
0.00474319
0.00739987
0.00607633
0.00594365
0.00710823
0.00580438
0.00263164
0.00036316
0.000348527
0.000736645
0.00196341
0.00394156
0.000287002
0.000663722
0.000467915
0.000659993
0.000989015
0.00214377
0.00382406
0.00897566
0.00753745
0.00848427
0.0078204
0.00742184
0.00615494
0.00619576
0.0100296
0.00867453
0.011362
0.00988574
0.0097176
0.00902766
0.00806177
0.0113188
0.0104104
0.0130964
0.0141412
0.0127363
0.0123639
0.0155718
0.0137948
0.0129679
0.0153233
0.0163517
0.0140826
0.0123606
0.0149095
0.0200765
0.0147486
0.0213092
0.0163192
0.01547
0.0126375
0.0118924
0.00365976
0.00359125
0.00444023
0.00337702
0.00257281
0.00347497
0.00620343
0.00383149
0.00376379
0.00460186
0.00429312
0.00401017
0.00433102
0.00669366
0.00523794
0.00490023
0.00382338
0.00516019
0.00576646
0.00673142
0.00545689
0.00430985
0.000213496
0.000172585
0.000140069
0.000221013
0.000279026
0.000254081
0.000302655
0.000467169
0.000291678
0.000439547
0.0004005
0.0002397
0.00887349
0.00766079
0.00917283
0.0088316
0.00927986
0.00989336
0.0078277
0.00924913
0.00736399
0.0121654
0.00954716
0.00869376
0.00857834
0.00682974
0.0135213
0.0112771
0.0111464
0.0101447
0.0167856
0.0115578
0.00787314
0.0127401
0.0023133
0.00273601
0.00308294
0.00274424
0.00257808
0.00232529
0.00260888
0.00295713
0.00308945
0.00275948
0.00316561
0.00350638
0.00304641
0.00358823
0.0028518
0.0035487
0.00374287
0.00464672
0.00520092
0.00418761
0.00368552
0.00418327
0.00438648
0.0064712
0.00466329
0.00375761
0.00481567
0.00663379
0.00751535
0.00520464
0.00693156
0.00760245
0.0055035
0.00792416
0.00612927
0.00748826
0.00730883
0.00879893
0.0107954
0.00802927
0.00637371
0.00789136
0.00853211
0.0126629
0.00969971
0.00615817
0.00908808
0.0100731
0.0167265
0.00952821
0.0109477
0.0152003
0.00329426
0.00253144
0.00331398
0.00210169
0.00241813
0.0019715
0.00238158
0.00303569
0.000383074
0.000349403
0.000424441
0.00122782
0.00265248
0.00236759
0.00132768
0.00350885
0.00126257
0.000723242
0.00421826
0.00250912
0.00385145
0.000724461
0.00137445
0.000752408
0.0182777
0.0178271
0.0109546
0.0118885
0.0147578
0.0093416
0.0102271
0.0104821
0.00303237
0.00259912
0.00326991
0.00327422
0.00289255
0.00191721
0.00236524
0.00239045
0.00261447
0.00254438
0.00294273
0.00205071
0.00265367
0.00247912
0.00319812
0.0029312
0.00345418
0.00371699
0.00365138
0.00292571
0.0033414
0.00320244
0.00335254
0.00316069
0.00335861
0.00312521
0.00392559
0.00369635
0.00191012
0.00495193
0.000724696
0.00145125
0.00307658
0.00195646
0.00280895
0.00154453
0.000840569
0.000498103
0.000727317
0.000618819
0.00123522
0.00311
0.00314917
0.00314423
0.00291455
0.00407216
0.00291916
0.00306296
0.00339637
0.00598893
0.00417961
0.00455527
0.00628312
0.00740477
0.0055878
0.0052269
0.00462271
0.00487345
0.00565158
0.00579841
0.00533742
0.00702944
0.00583262
0.00530355
0.00504213
0.00615847
0.0043526
0.00605887
0.00266691
0.00363116
0.00402145
0.00394596
0.00472624
0.00346751
0.00343482
0.0044511
0.00386998
0.00579503
0.00416492
0.00558644
0.00437383
0.0052695
0.00520543
0.00390873
0.00423005
0.00374113
0.00737753
0.00951369
0.00791449
0.0125063
0.00924806
0.00959523
0.0141418
0.0153877
0.00871691
0.00896415
0.00780002
0.0122059
0.0112381
0.0115418
0.00768322
0.0106432
0.010002
0.00732393
0.00853678
0.00608396
0.00651127
0.00618269
0.00555187
0.00776976
0.0067023
0.00729941
0.00598293
0.0060441
0.00613172
0.00665436
0.0048511
0.00740594
0.0046596
0.00327896
0.00421497
0.00587141
0.00709125
0.00710975
0.00593639
0.00627041
0.00460398
0.00718363
0.00492575
0.00652258
0.0117232
0.0136619
0.011432
0.00822896
0.00728514
0.00837537
0.00830959
0.00798899
0.0105043
0.0106504
0.0090649
0.0120516
0.00826532
0.00940149
0.00630052
0.00708931
0.00819252
0.00738355
0.000360599
0.0003345
0.000941356
0.000590497
0.00067411
0.00135835
0.0123164
0.00972208
0.013351
0.00104477
0.00195076
0.00186379
0.00270602
0.00245027
0.00229107
0.0030936
0.00380703
0.00121964
0.00324714
0.00526245
0.00426858
0.0034629
0.00424864
0.0043557
0.00541922
0.0034665
0.00456164
0.00658066
0.00931402
0.00541269
0.00526572
0.00857217
0.00653119
0.00987651
0.0068961
0.000630069
0.0117564
0.00190252
0.000358954
0.00697578
0.00816778
0.00274572
0.00956795
0.00529896
0.00215692
0.00101245
0.00800831
0.0125741
